*SPEF "ieee 1481-1999"
*DESIGN "fifo"
*DATE "18:33:52 Thursday February 12, 2026"
*VENDOR "The OpenROAD Project"
*PROGRAM "OpenROAD"
*VERSION "26Q1-850-gafd49e5292"
*DESIGN_FLOW "NAME_SCOPE LOCAL" "PIN_CAP NONE"
*DIVIDER /
*DELIMITER :
*BUS_DELIMITER []
*T_UNIT 1 NS
*C_UNIT 1 PF
*R_UNIT 1 OHM
*L_UNIT 1 HENRY

*NAME_MAP
*1 _0020_
*2 _0021_
*3 _0022_
*4 _0023_
*5 _0024_
*6 _0025_
*7 _0026_
*8 _0027_
*9 _0028_
*10 _0029_
*11 _0030_
*12 _0031_
*13 _0032_
*14 _0033_
*15 _0034_
*16 _0035_
*17 _0036_
*18 _0037_
*19 _0038_
*20 _0039_
*21 _0040_
*22 _0041_
*23 _0042_
*24 _0043_
*25 _0044_
*26 _0045_
*27 _0046_
*28 _0047_
*29 _0048_
*30 _0049_
*31 _0050_
*32 _0051_
*33 _0052_
*34 _0053_
*35 _0054_
*36 _0055_
*37 _0056_
*38 _0057_
*39 _0058_
*40 _0059_
*41 _0060_
*42 _0061_
*43 _0062_
*44 _0063_
*45 _0064_
*46 _0065_
*47 _0066_
*48 _0067_
*49 _0068_
*50 _0069_
*51 _0070_
*52 _0071_
*53 _0072_
*54 _0073_
*55 _0074_
*56 _0075_
*57 _0076_
*58 _0077_
*59 _0078_
*60 _0079_
*61 _0080_
*62 _0081_
*63 _0082_
*64 _0083_
*65 _0084_
*66 _0085_
*67 _0086_
*68 _0087_
*69 _0088_
*70 _0089_
*71 _0090_
*72 _0091_
*73 _0092_
*74 _0093_
*75 _0094_
*76 _0095_
*77 _0096_
*78 _0097_
*79 _0098_
*80 _0099_
*81 _0100_
*82 _0101_
*83 _0102_
*84 _0103_
*85 _0104_
*86 _0105_
*87 _0106_
*88 _0107_
*89 _0108_
*90 _0109_
*91 _0110_
*92 _0111_
*93 _0112_
*94 _0113_
*95 _0114_
*96 _0115_
*97 _0116_
*98 _0117_
*99 _0118_
*100 _0119_
*101 _0120_
*102 _0121_
*103 _0122_
*104 _0123_
*105 _0124_
*106 _0125_
*107 _0126_
*108 _0127_
*109 _0128_
*110 _0129_
*111 _0130_
*112 _0131_
*113 _0132_
*114 _0133_
*115 _0134_
*116 _0135_
*117 _0136_
*118 _0137_
*119 _0138_
*120 _0139_
*121 _0140_
*122 _0141_
*123 _0142_
*124 _0143_
*125 _0144_
*126 _0145_
*127 _0146_
*128 _0147_
*129 _0148_
*130 _0149_
*131 _0150_
*132 _0151_
*133 _0152_
*134 _0153_
*135 _0154_
*136 _0155_
*137 _0156_
*138 _0157_
*139 _0158_
*140 _0159_
*141 _0160_
*142 _0161_
*143 _0162_
*144 _0163_
*145 _0164_
*146 _0165_
*147 _0166_
*148 _0167_
*149 _0296_
*150 _0297_
*151 _0298_
*152 _0299_
*153 _0300_
*154 _0301_
*155 _0302_
*156 _0303_
*157 _0304_
*158 _0305_
*159 _0306_
*160 _0307_
*161 _0308_
*162 _0309_
*163 _0310_
*164 _0311_
*165 _0312_
*166 _0313_
*167 _0314_
*168 _0315_
*169 _0316_
*170 _0317_
*171 _0318_
*172 _0319_
*173 _0320_
*174 _0321_
*175 _0322_
*176 _0323_
*177 _0324_
*178 _0325_
*179 _0326_
*180 _0327_
*181 _0328_
*182 _0329_
*183 _0330_
*184 _0331_
*185 _0332_
*186 _0333_
*187 _0334_
*188 _0335_
*189 _0336_
*190 _0337_
*191 _0338_
*192 _0339_
*193 _0340_
*194 _0341_
*195 _0342_
*196 _0343_
*197 _0344_
*198 _0345_
*199 _0346_
*200 _0347_
*201 _0348_
*202 _0349_
*203 _0350_
*204 _0351_
*205 _0352_
*206 _0353_
*207 _0354_
*208 _0355_
*209 _0356_
*210 _0357_
*211 _0358_
*212 _0359_
*213 _0360_
*214 _0361_
*215 _0362_
*216 _0363_
*217 _0364_
*218 _0365_
*219 _0366_
*220 _0367_
*221 _0368_
*222 _0369_
*223 _0370_
*224 _0371_
*225 _0372_
*226 _0373_
*227 _0374_
*228 _0375_
*229 _0376_
*230 _0377_
*231 _0378_
*232 _0379_
*233 _0380_
*234 _0381_
*235 _0382_
*236 _0383_
*237 _0384_
*238 _0385_
*239 _0386_
*240 _0387_
*241 _0388_
*242 _0389_
*243 _0390_
*244 _0391_
*245 _0392_
*246 _0393_
*247 _0394_
*248 _0395_
*249 _0396_
*250 _0397_
*251 _0398_
*252 _0399_
*253 _0400_
*254 _0401_
*255 _0402_
*256 _0403_
*257 _0404_
*258 _0405_
*259 _0406_
*260 _0407_
*261 _0408_
*262 _0409_
*263 _0410_
*264 _0411_
*265 _0412_
*266 _0413_
*267 _0414_
*268 _0415_
*269 _0416_
*270 _0417_
*271 _0418_
*272 _0419_
*273 _0420_
*274 _0421_
*275 _0422_
*276 _0423_
*277 _0424_
*278 _0425_
*279 _0426_
*280 _0427_
*281 _0428_
*282 _0429_
*283 _0430_
*284 _0431_
*285 _0432_
*286 _0433_
*287 _0434_
*288 _0435_
*289 _0436_
*290 _0437_
*291 _0438_
*292 _0439_
*293 _0440_
*294 _0441_
*295 _0442_
*296 _0443_
*297 _0444_
*298 _0445_
*299 _0446_
*300 _0447_
*301 _0448_
*302 _0449_
*303 _0450_
*304 _0451_
*305 _0452_
*306 _0453_
*307 _0454_
*308 _0455_
*309 _0456_
*310 _0486_
*311 _0487_
*312 _0488_
*313 _0489_
*314 _0490_
*315 _0491_
*316 _0492_
*317 _0493_
*318 _0494_
*319 _0495_
*320 _0496_
*321 _0497_
*322 _0498_
*323 _0499_
*324 _0500_
*325 _0501_
*326 _0502_
*327 _0503_
*328 _0504_
*329 _0505_
*330 _0506_
*331 _0507_
*332 _0508_
*333 _0509_
*334 _0510_
*335 _0511_
*336 _0512_
*337 _0513_
*338 _0514_
*339 _0515_
*340 _0516_
*341 _0517_
*342 _0518_
*343 _0519_
*344 _0520_
*345 _0521_
*346 _0522_
*347 _0523_
*348 _0524_
*349 _0525_
*350 _0526_
*351 _0527_
*352 _0528_
*353 _0529_
*354 _0530_
*355 _0531_
*356 _0532_
*357 _0533_
*358 _0534_
*359 _0535_
*360 _0536_
*361 _0537_
*362 _0538_
*363 _0539_
*364 _0540_
*365 _0541_
*366 _0542_
*367 _0543_
*368 _0544_
*369 _0545_
*370 _0546_
*371 _0547_
*372 _0548_
*373 _0549_
*374 _0550_
*375 _0551_
*376 _0552_
*377 _0553_
*378 _0554_
*379 _0555_
*380 _0556_
*381 _0557_
*382 _0558_
*383 _0559_
*384 _0560_
*385 _0561_
*386 _0562_
*387 _0563_
*388 _0564_
*389 _0565_
*390 _0566_
*391 _0567_
*392 _0568_
*393 _0569_
*394 _0570_
*395 _0571_
*396 _0572_
*397 _0573_
*398 _0574_
*399 _0575_
*400 _0576_
*401 _0577_
*402 _0578_
*403 _0579_
*404 _0580_
*405 _0581_
*406 _0582_
*407 _0583_
*408 _0584_
*409 _0585_
*410 _0586_
*411 _0587_
*412 _0588_
*413 _0589_
*414 _0590_
*415 _0591_
*416 _0592_
*417 _0593_
*418 _0594_
*419 _0595_
*420 _0596_
*421 _0597_
*422 _0598_
*423 _0599_
*424 _0600_
*425 _0601_
*426 _0602_
*427 _0603_
*428 _0604_
*429 _0605_
*430 _0606_
*431 _0607_
*432 _0608_
*433 _0609_
*434 _0610_
*435 _0611_
*436 _0612_
*437 _0613_
*438 _0614_
*439 _0615_
*440 _0616_
*441 _0617_
*442 _0618_
*443 _0619_
*444 _0620_
*445 _0621_
*446 _0622_
*447 _0623_
*448 _0624_
*449 _0625_
*450 _0626_
*451 _0627_
*452 _0628_
*453 _0629_
*454 _0630_
*455 _0631_
*456 clk
*457 mem\[0\][0]
*458 mem\[0\][1]
*459 mem\[0\][2]
*460 mem\[0\][3]
*461 mem\[0\][4]
*462 mem\[0\][5]
*463 mem\[0\][6]
*464 mem\[0\][7]
*465 mem\[10\][0]
*466 mem\[10\][1]
*467 mem\[10\][2]
*468 mem\[10\][3]
*469 mem\[10\][4]
*470 mem\[10\][5]
*471 mem\[10\][6]
*472 mem\[10\][7]
*473 mem\[11\][0]
*474 mem\[11\][1]
*475 mem\[11\][2]
*476 mem\[11\][3]
*477 mem\[11\][4]
*478 mem\[11\][5]
*479 mem\[11\][6]
*480 mem\[11\][7]
*481 mem\[12\][0]
*482 mem\[12\][1]
*483 mem\[12\][2]
*484 mem\[12\][3]
*485 mem\[12\][4]
*486 mem\[12\][5]
*487 mem\[12\][6]
*488 mem\[12\][7]
*489 mem\[13\][0]
*490 mem\[13\][1]
*491 mem\[13\][2]
*492 mem\[13\][3]
*493 mem\[13\][4]
*494 mem\[13\][5]
*495 mem\[13\][6]
*496 mem\[13\][7]
*497 mem\[14\][0]
*498 mem\[14\][1]
*499 mem\[14\][2]
*500 mem\[14\][3]
*501 mem\[14\][4]
*502 mem\[14\][5]
*503 mem\[14\][6]
*504 mem\[14\][7]
*505 mem\[15\][0]
*506 mem\[15\][1]
*507 mem\[15\][2]
*508 mem\[15\][3]
*509 mem\[15\][4]
*510 mem\[15\][5]
*511 mem\[15\][6]
*512 mem\[15\][7]
*513 mem\[1\][0]
*514 mem\[1\][1]
*515 mem\[1\][2]
*516 mem\[1\][3]
*517 mem\[1\][4]
*518 mem\[1\][5]
*519 mem\[1\][6]
*520 mem\[1\][7]
*521 mem\[2\][0]
*522 mem\[2\][1]
*523 mem\[2\][2]
*524 mem\[2\][3]
*525 mem\[2\][4]
*526 mem\[2\][5]
*527 mem\[2\][6]
*528 mem\[2\][7]
*529 mem\[3\][0]
*530 mem\[3\][1]
*531 mem\[3\][2]
*532 mem\[3\][3]
*533 mem\[3\][4]
*534 mem\[3\][5]
*535 mem\[3\][6]
*536 mem\[3\][7]
*537 mem\[4\][0]
*538 mem\[4\][1]
*539 mem\[4\][2]
*540 mem\[4\][3]
*541 mem\[4\][4]
*542 mem\[4\][5]
*543 mem\[4\][6]
*544 mem\[4\][7]
*545 mem\[5\][0]
*546 mem\[5\][1]
*547 mem\[5\][2]
*548 mem\[5\][3]
*549 mem\[5\][4]
*550 mem\[5\][5]
*551 mem\[5\][6]
*552 mem\[5\][7]
*553 mem\[6\][0]
*554 mem\[6\][1]
*555 mem\[6\][2]
*556 mem\[6\][3]
*557 mem\[6\][4]
*558 mem\[6\][5]
*559 mem\[6\][6]
*560 mem\[6\][7]
*561 mem\[7\][0]
*562 mem\[7\][1]
*563 mem\[7\][2]
*564 mem\[7\][3]
*565 mem\[7\][4]
*566 mem\[7\][5]
*567 mem\[7\][6]
*568 mem\[7\][7]
*569 mem\[8\][0]
*570 mem\[8\][1]
*571 mem\[8\][2]
*572 mem\[8\][3]
*573 mem\[8\][4]
*574 mem\[8\][5]
*575 mem\[8\][6]
*576 mem\[8\][7]
*577 mem\[9\][0]
*578 mem\[9\][1]
*579 mem\[9\][2]
*580 mem\[9\][3]
*581 mem\[9\][4]
*582 mem\[9\][5]
*583 mem\[9\][6]
*584 mem\[9\][7]
*585 rd_data[0]
*586 rd_data[1]
*587 rd_data[2]
*588 rd_data[3]
*589 rd_data[4]
*590 rd_data[5]
*591 rd_data[6]
*592 rd_data[7]
*593 rd_en
*594 rd_ptr[0]
*595 rd_ptr[1]
*596 rd_ptr[2]
*597 rd_ptr[3]
*598 rd_ptr[4]
*599 rst_n
*600 wr_data[0]
*601 wr_data[1]
*602 wr_data[2]
*603 wr_data[3]
*604 wr_data[4]
*605 wr_data[5]
*606 wr_data[6]
*607 wr_data[7]
*608 wr_en
*609 wr_ptr[0]
*610 wr_ptr[1]
*611 wr_ptr[2]
*612 wr_ptr[3]
*613 wr_ptr[4]
*616 net1
*617 net2
*618 net3
*619 net4
*620 net5
*621 net6
*622 net7
*623 net8
*624 net9
*625 net10
*626 net11
*627 net12
*628 net13
*629 net14
*630 net15
*631 net16
*632 net17
*633 clknet_0_clk
*634 clknet_4_0_0_clk
*635 clknet_4_1_0_clk
*636 clknet_4_2_0_clk
*637 clknet_4_3_0_clk
*638 clknet_4_4_0_clk
*639 clknet_4_5_0_clk
*640 clknet_4_6_0_clk
*641 clknet_4_7_0_clk
*642 clknet_4_8_0_clk
*643 clknet_4_9_0_clk
*644 clknet_4_10_0_clk
*645 clknet_4_11_0_clk
*646 clknet_4_12_0_clk
*647 clknet_4_13_0_clk
*648 clknet_4_14_0_clk
*649 clknet_4_15_0_clk
*650 _0851_
*651 _0852_
*652 _0853_
*653 _0854_
*654 _0855_
*655 _0856_
*656 _0857_
*657 _0858_
*658 _0859_
*659 _0860_
*660 _0861_
*661 _0862_
*662 _0863_
*663 _0864_
*664 _0865_
*665 _0866_
*666 _0867_
*667 _0868_
*668 _0869_
*669 _0870_
*670 _0871_
*671 _0872_
*672 _0873_
*673 _0874_
*674 _0875_
*675 _0876_
*676 _0877_
*677 _0878_
*678 _0879_
*679 _0880_
*680 _0881_
*681 _0882_
*682 _0883_
*683 _0884_
*684 _0885_
*685 _0886_
*686 _0887_
*687 _0888_
*688 _0889_
*689 _0890_
*690 _0891_
*691 _0892_
*692 _0893_
*693 _0894_
*694 _0895_
*695 _0896_
*696 _0897_
*697 _0898_
*698 _0899_
*699 _0900_
*700 _0901_
*701 _0902_
*702 _0903_
*703 _0904_
*704 _0905_
*705 _0906_
*706 _0907_
*707 _0908_
*708 _0909_
*709 _0910_
*710 _0911_
*711 _0912_
*712 _0913_
*713 _0914_
*714 _0915_
*715 _0916_
*716 _0917_
*717 _0918_
*718 _0919_
*719 _0920_
*720 _0921_
*721 _0922_
*722 _0923_
*723 _0924_
*724 _0925_
*725 _0926_
*726 _0927_
*727 _0928_
*728 _0929_
*729 _0930_
*730 _0931_
*731 _0932_
*732 _0933_
*733 _0934_
*734 _0935_
*735 _0936_
*736 _0937_
*737 _0938_
*738 _0939_
*739 _0940_
*740 _0941_
*741 _0942_
*742 _0943_
*743 _0944_
*744 _0945_
*745 _0946_
*746 _0947_
*747 _0948_
*748 _0949_
*749 _0950_
*750 _0951_
*751 _0952_
*752 _0953_
*753 _0954_
*754 _0955_
*755 _0956_
*756 _0957_
*757 _0958_
*758 _0959_
*759 _0960_
*760 _0961_
*761 _0962_
*762 _0963_
*763 _0964_
*764 _0965_
*765 _0966_
*766 _0967_
*767 _0968_
*768 _0969_
*769 _0970_
*770 _0971_
*771 _0972_
*772 _0973_
*773 _0974_
*774 _0975_
*775 _0976_
*776 _0977_
*777 _0978_
*778 _0979_
*779 _0980_
*780 _0981_
*781 _0982_
*782 _0983_
*783 _0984_
*784 _0985_
*785 _0986_
*786 _0987_
*787 _0988_
*788 _0989_
*789 _0990_
*790 _0991_
*791 _0992_
*792 _0993_
*793 _0994_
*794 _0995_
*795 _0996_
*796 _0997_
*797 _0998_
*798 _0999_
*799 _1000_
*800 _1001_
*801 _1002_
*802 _1003_
*803 _1004_
*804 _1005_
*805 _1006_
*806 _1007_
*807 _1008_
*808 _1009_
*809 _1010_
*810 _1011_
*811 _1012_
*812 _1013_
*813 _1014_
*814 _1015_
*815 _1016_
*816 _1017_
*817 _1018_
*818 _1019_
*819 _1020_
*820 _1021_
*821 _1022_
*822 _1023_
*823 _1024_
*824 _1025_
*825 _1026_
*826 _1027_
*827 _1028_
*828 _1029_
*829 _1030_
*830 _1031_
*831 _1032_
*832 _1033_
*833 _1034_
*834 _1035_
*835 _1036_
*836 _1037_
*837 _1038_
*838 _1039_
*839 _1040_
*840 _1041_
*841 _1042_
*842 _1043_
*843 _1044_
*844 _1045_
*845 _1046_
*846 _1047_
*847 _1048_
*848 _1049_
*849 _1050_
*850 _1051_
*851 _1052_
*852 _1053_
*853 _1054_
*854 _1055_
*855 _1056_
*856 _1057_
*857 _1058_
*858 _1059_
*859 _1060_
*860 _1061_
*861 _1062_
*862 _1063_
*863 _1064_
*864 _1065_
*865 _1066_
*866 _1067_
*867 _1068_
*868 _1069_
*869 _1070_
*870 _1071_
*871 _1072_
*872 _1073_
*873 _1074_
*874 _1075_
*875 _1076_
*876 _1077_
*877 _1078_
*878 _1079_
*879 _1080_
*880 _1081_
*881 _1082_
*882 _1083_
*883 _1084_
*884 _1085_
*885 _1086_
*886 _1087_
*887 _1088_
*888 _1089_
*889 _1090_
*890 _1091_
*891 _1092_
*892 _1093_
*893 _1094_
*894 _1095_
*895 _1096_
*896 _1097_
*897 _1098_
*898 _1099_
*899 _1100_
*900 _1101_
*901 _1102_
*902 _1103_
*903 _1104_
*904 _1105_
*905 _1106_
*906 _1107_
*907 _1108_
*908 _1109_
*909 _1110_
*910 _1111_
*911 _1112_
*912 _1113_
*913 _1114_
*914 _1115_
*915 _1116_
*916 _1117_
*917 _1118_
*918 _1119_
*919 _1120_
*920 _1121_
*921 _1122_
*922 _1123_
*923 _1124_
*924 _1125_
*925 _1126_
*926 _1127_
*927 _1128_
*928 _1129_
*929 _1130_
*930 _1131_
*931 _1132_
*932 _1133_
*933 _1134_
*934 _1135_
*935 _1136_
*936 _1137_
*937 _1138_
*938 _1139_
*939 _1140_
*940 _1141_
*941 _1142_
*942 _1143_
*943 _1144_
*944 _1145_
*945 _1146_
*946 _1147_
*947 _1148_
*948 _1149_
*949 _1150_
*950 _1151_
*951 _1152_
*952 _1153_
*953 _1154_
*954 _1155_
*955 _1156_
*956 _1157_
*957 _1158_
*958 _1159_
*959 _1160_
*960 _1161_
*961 _1162_
*962 _1163_
*963 _1164_
*964 _1165_
*965 _1166_
*966 _1167_
*967 _1168_
*968 _1169_
*969 _1170_
*970 _1171_
*971 _1172_
*972 _1173_
*973 _1174_
*974 _1175_
*975 _1176_
*976 _1177_
*977 _1178_
*978 _1179_
*979 _1180_
*980 _1181_
*981 _1182_
*982 _1183_
*983 _1184_
*984 _1185_
*985 _1186_
*986 _1187_
*987 _1188_
*988 _1189_
*989 _1190_
*990 _1191_
*991 _1192_
*992 _1193_
*993 _1194_
*994 _1195_
*995 _1196_
*996 _1197_
*997 _1198_
*998 _1199_
*999 _1200_
*1000 _1201_
*1001 _1202_
*1002 _1203_
*1003 _1204_
*1004 _1205_
*1005 _1206_
*1006 _1207_
*1007 _1208_
*1008 _1209_
*1009 _1210_
*1010 _1211_
*1011 _1212_
*1012 _1213_
*1013 _1214_
*1014 _1215_
*1015 _1216_
*1016 _1217_
*1017 _1218_
*1018 _1219_
*1019 _1220_
*1020 _1221_
*1021 _1222_
*1022 _1223_
*1023 _1224_
*1024 _1225_
*1025 _1226_
*1026 _1227_
*1027 _1228_
*1028 _1229_
*1029 _1230_
*1030 _1231_
*1031 _1232_
*1032 _1233_
*1033 _1234_
*1034 _1235_
*1035 _1236_
*1036 _1237_
*1037 _1238_
*1038 _1239_
*1039 _1240_
*1040 _1241_
*1041 _1242_
*1042 _1243_
*1043 _1244_
*1044 _1245_
*1045 _1246_
*1046 _1247_
*1047 _1248_
*1048 _1249_
*1049 _1250_
*1050 _1251_
*1051 _1252_
*1052 _1253_
*1053 _1254_
*1054 _1255_
*1055 _1256_
*1056 _1257_
*1057 _1258_
*1058 _1259_
*1059 _1260_
*1060 _1261_
*1061 _1262_
*1062 _1263_
*1063 _1264_
*1064 _1265_
*1065 _1266_
*1066 _1267_
*1067 _1268_
*1068 _1269_
*1069 _1270_
*1070 _1271_
*1071 _1272_
*1072 _1273_
*1073 _1274_
*1074 _1275_
*1075 _1276_
*1076 _1277_
*1077 _1278_
*1078 _1279_
*1079 _1280_
*1080 _1281_
*1081 _1282_
*1082 _1283_
*1083 _1284_
*1084 _1285_
*1085 _1286_
*1086 _1287_
*1087 _1288_
*1088 _1289_
*1089 _1290_
*1090 _1291_
*1091 _1292_
*1092 _1293_
*1093 _1294_
*1094 _1295_
*1095 _1296_
*1096 _1297_
*1097 _1298_
*1098 _1299_
*1099 _1300_
*1100 _1301_
*1101 _1302_
*1102 _1303_
*1103 _1304_
*1104 _1305_
*1105 PHY_EDGE_ROW_0_Right_0
*1106 PHY_EDGE_ROW_1_Right_1
*1107 PHY_EDGE_ROW_2_Right_2
*1108 PHY_EDGE_ROW_3_Right_3
*1109 PHY_EDGE_ROW_4_Right_4
*1110 PHY_EDGE_ROW_5_Right_5
*1111 PHY_EDGE_ROW_6_Right_6
*1112 PHY_EDGE_ROW_7_Right_7
*1113 PHY_EDGE_ROW_8_Right_8
*1114 PHY_EDGE_ROW_9_Right_9
*1115 PHY_EDGE_ROW_10_Right_10
*1116 PHY_EDGE_ROW_11_Right_11
*1117 PHY_EDGE_ROW_12_Right_12
*1118 PHY_EDGE_ROW_13_Right_13
*1119 PHY_EDGE_ROW_14_Right_14
*1120 PHY_EDGE_ROW_15_Right_15
*1121 PHY_EDGE_ROW_16_Right_16
*1122 PHY_EDGE_ROW_17_Right_17
*1123 PHY_EDGE_ROW_18_Right_18
*1124 PHY_EDGE_ROW_19_Right_19
*1125 PHY_EDGE_ROW_20_Right_20
*1126 PHY_EDGE_ROW_21_Right_21
*1127 PHY_EDGE_ROW_22_Right_22
*1128 PHY_EDGE_ROW_23_Right_23
*1129 PHY_EDGE_ROW_24_Right_24
*1130 PHY_EDGE_ROW_25_Right_25
*1131 PHY_EDGE_ROW_26_Right_26
*1132 PHY_EDGE_ROW_27_Right_27
*1133 PHY_EDGE_ROW_28_Right_28
*1134 PHY_EDGE_ROW_29_Right_29
*1135 PHY_EDGE_ROW_0_Left_30
*1136 PHY_EDGE_ROW_1_Left_31
*1137 PHY_EDGE_ROW_2_Left_32
*1138 PHY_EDGE_ROW_3_Left_33
*1139 PHY_EDGE_ROW_4_Left_34
*1140 PHY_EDGE_ROW_5_Left_35
*1141 PHY_EDGE_ROW_6_Left_36
*1142 PHY_EDGE_ROW_7_Left_37
*1143 PHY_EDGE_ROW_8_Left_38
*1144 PHY_EDGE_ROW_9_Left_39
*1145 PHY_EDGE_ROW_10_Left_40
*1146 PHY_EDGE_ROW_11_Left_41
*1147 PHY_EDGE_ROW_12_Left_42
*1148 PHY_EDGE_ROW_13_Left_43
*1149 PHY_EDGE_ROW_14_Left_44
*1150 PHY_EDGE_ROW_15_Left_45
*1151 PHY_EDGE_ROW_16_Left_46
*1152 PHY_EDGE_ROW_17_Left_47
*1153 PHY_EDGE_ROW_18_Left_48
*1154 PHY_EDGE_ROW_19_Left_49
*1155 PHY_EDGE_ROW_20_Left_50
*1156 PHY_EDGE_ROW_21_Left_51
*1157 PHY_EDGE_ROW_22_Left_52
*1158 PHY_EDGE_ROW_23_Left_53
*1159 PHY_EDGE_ROW_24_Left_54
*1160 PHY_EDGE_ROW_25_Left_55
*1161 PHY_EDGE_ROW_26_Left_56
*1162 PHY_EDGE_ROW_27_Left_57
*1163 PHY_EDGE_ROW_28_Left_58
*1164 PHY_EDGE_ROW_29_Left_59
*1165 max_cap1
*1166 max_cap2
*1167 max_cap3
*1168 max_cap4
*1169 max_cap5
*1170 max_cap6
*1171 max_cap7
*1172 max_cap8
*1173 wire9
*1174 max_cap10
*1175 max_cap11
*1176 max_cap12
*1177 max_cap13
*1178 max_cap14
*1179 max_cap15
*1180 wire16
*1181 max_cap17
*1182 clkbuf_0_clk
*1183 clkbuf_4_0_0_clk
*1184 clkbuf_4_1_0_clk
*1185 clkbuf_4_2_0_clk
*1186 clkbuf_4_3_0_clk
*1187 clkbuf_4_4_0_clk
*1188 clkbuf_4_5_0_clk
*1189 clkbuf_4_6_0_clk
*1190 clkbuf_4_7_0_clk
*1191 clkbuf_4_8_0_clk
*1192 clkbuf_4_9_0_clk
*1193 clkbuf_4_10_0_clk
*1194 clkbuf_4_11_0_clk
*1195 clkbuf_4_12_0_clk
*1196 clkbuf_4_13_0_clk
*1197 clkbuf_4_14_0_clk
*1198 clkbuf_4_15_0_clk
*1199 clkload0
*1200 clkload1
*1201 clkload2
*1202 clkload3
*1203 clkload4
*1204 clkload5
*1205 clkload6
*1206 clkload7
*1207 clkload8
*1208 clkload9
*1209 clkload10
*1210 clkload11
*1211 clkload12
*1212 clkload13
*1213 clkload14
*1214 FILLER_0_1
*1215 FILLER_0_17
*1216 FILLER_0_25
*1217 FILLER_0_33
*1218 FILLER_0_54
*1219 FILLER_0_63
*1220 FILLER_0_67
*1221 FILLER_0_86
*1222 FILLER_0_94
*1223 FILLER_0_98
*1224 FILLER_0_100
*1225 FILLER_0_121
*1226 FILLER_0_137
*1227 FILLER_0_141
*1228 FILLER_0_144
*1229 FILLER_0_166
*1230 FILLER_0_184
*1231 FILLER_0_192
*1232 FILLER_0_198
*1233 FILLER_0_202
*1234 FILLER_0_224
*1235 FILLER_1_1
*1236 FILLER_1_17
*1237 FILLER_1_36
*1238 FILLER_1_40
*1239 FILLER_1_58
*1240 FILLER_1_67
*1241 FILLER_1_76
*1242 FILLER_1_95
*1243 FILLER_1_99
*1244 FILLER_1_104
*1245 FILLER_1_108
*1246 FILLER_1_129
*1247 FILLER_1_134
*1248 FILLER_1_140
*1249 FILLER_1_148
*1250 FILLER_1_150
*1251 FILLER_1_157
*1252 FILLER_1_179
*1253 FILLER_1_185
*1254 FILLER_1_207
*1255 FILLER_1_215
*1256 FILLER_1_221
*1257 FILLER_1_225
*1258 FILLER_2_1
*1259 FILLER_2_22
*1260 FILLER_2_32
*1261 FILLER_2_43
*1262 FILLER_2_52
*1263 FILLER_2_56
*1264 FILLER_2_58
*1265 FILLER_2_76
*1266 FILLER_2_80
*1267 FILLER_2_82
*1268 FILLER_2_90
*1269 FILLER_2_92
*1270 FILLER_2_110
*1271 FILLER_2_114
*1272 FILLER_2_122
*1273 FILLER_2_124
*1274 FILLER_2_129
*1275 FILLER_2_135
*1276 FILLER_2_142
*1277 FILLER_2_148
*1278 FILLER_2_153
*1279 FILLER_2_157
*1280 FILLER_2_161
*1281 FILLER_2_169
*1282 FILLER_2_173
*1283 FILLER_2_175
*1284 FILLER_2_196
*1285 FILLER_2_204
*1286 FILLER_2_206
*1287 FILLER_2_213
*1288 FILLER_2_219
*1289 FILLER_2_223
*1290 FILLER_2_225
*1291 FILLER_3_1
*1292 FILLER_3_10
*1293 FILLER_3_29
*1294 FILLER_3_36
*1295 FILLER_3_57
*1296 FILLER_3_64
*1297 FILLER_3_68
*1298 FILLER_3_76
*1299 FILLER_3_80
*1300 FILLER_3_86
*1301 FILLER_3_93
*1302 FILLER_3_95
*1303 FILLER_3_103
*1304 FILLER_3_110
*1305 FILLER_3_116
*1306 FILLER_3_120
*1307 FILLER_3_124
*1308 FILLER_3_130
*1309 FILLER_3_132
*1310 FILLER_3_137
*1311 FILLER_3_143
*1312 FILLER_3_151
*1313 FILLER_3_159
*1314 FILLER_3_167
*1315 FILLER_3_174
*1316 FILLER_3_178
*1317 FILLER_3_185
*1318 FILLER_3_190
*1319 FILLER_3_198
*1320 FILLER_3_202
*1321 FILLER_3_206
*1322 FILLER_3_215
*1323 FILLER_3_221
*1324 FILLER_3_225
*1325 FILLER_4_1
*1326 FILLER_4_16
*1327 FILLER_4_27
*1328 FILLER_4_29
*1329 FILLER_4_37
*1330 FILLER_4_56
*1331 FILLER_4_63
*1332 FILLER_4_65
*1333 FILLER_4_83
*1334 FILLER_4_87
*1335 FILLER_4_93
*1336 FILLER_4_95
*1337 FILLER_4_104
*1338 FILLER_4_106
*1339 FILLER_4_110
*1340 FILLER_4_115
*1341 FILLER_4_123
*1342 FILLER_4_127
*1343 FILLER_4_132
*1344 FILLER_4_138
*1345 FILLER_4_144
*1346 FILLER_4_154
*1347 FILLER_4_165
*1348 FILLER_4_173
*1349 FILLER_4_176
*1350 FILLER_4_187
*1351 FILLER_4_193
*1352 FILLER_4_197
*1353 FILLER_4_202
*1354 FILLER_4_224
*1355 FILLER_5_1
*1356 FILLER_5_5
*1357 FILLER_5_23
*1358 FILLER_5_27
*1359 FILLER_5_36
*1360 FILLER_5_45
*1361 FILLER_5_54
*1362 FILLER_5_56
*1363 FILLER_5_62
*1364 FILLER_5_71
*1365 FILLER_5_80
*1366 FILLER_5_89
*1367 FILLER_5_108
*1368 FILLER_5_112
*1369 FILLER_5_133
*1370 FILLER_5_146
*1371 FILLER_5_150
*1372 FILLER_5_158
*1373 FILLER_5_168
*1374 FILLER_5_175
*1375 FILLER_5_197
*1376 FILLER_5_219
*1377 FILLER_5_223
*1378 FILLER_5_225
*1379 FILLER_6_1
*1380 FILLER_6_3
*1381 FILLER_6_21
*1382 FILLER_6_42
*1383 FILLER_6_46
*1384 FILLER_6_55
*1385 FILLER_6_59
*1386 FILLER_6_61
*1387 FILLER_6_70
*1388 FILLER_6_74
*1389 FILLER_6_82
*1390 FILLER_6_101
*1391 FILLER_6_107
*1392 FILLER_6_109
*1393 FILLER_6_113
*1394 FILLER_6_119
*1395 FILLER_6_123
*1396 FILLER_6_129
*1397 FILLER_6_136
*1398 FILLER_6_145
*1399 FILLER_6_149
*1400 FILLER_6_154
*1401 FILLER_6_160
*1402 FILLER_6_166
*1403 FILLER_6_171
*1404 FILLER_6_177
*1405 FILLER_6_185
*1406 FILLER_6_187
*1407 FILLER_6_194
*1408 FILLER_6_198
*1409 FILLER_6_202
*1410 FILLER_6_224
*1411 FILLER_7_1
*1412 FILLER_7_5
*1413 FILLER_7_24
*1414 FILLER_7_33
*1415 FILLER_7_41
*1416 FILLER_7_62
*1417 FILLER_7_81
*1418 FILLER_7_96
*1419 FILLER_7_102
*1420 FILLER_7_111
*1421 FILLER_7_116
*1422 FILLER_7_121
*1423 FILLER_7_126
*1424 FILLER_7_134
*1425 FILLER_7_136
*1426 FILLER_7_141
*1427 FILLER_7_146
*1428 FILLER_7_152
*1429 FILLER_7_154
*1430 FILLER_7_160
*1431 FILLER_7_162
*1432 FILLER_7_168
*1433 FILLER_7_177
*1434 FILLER_7_181
*1435 FILLER_7_192
*1436 FILLER_7_198
*1437 FILLER_7_202
*1438 FILLER_7_212
*1439 FILLER_7_220
*1440 FILLER_7_224
*1441 FILLER_8_1
*1442 FILLER_8_3
*1443 FILLER_8_9
*1444 FILLER_8_18
*1445 FILLER_8_22
*1446 FILLER_8_28
*1447 FILLER_8_39
*1448 FILLER_8_48
*1449 FILLER_8_52
*1450 FILLER_8_71
*1451 FILLER_8_75
*1452 FILLER_8_84
*1453 FILLER_8_92
*1454 FILLER_8_101
*1455 FILLER_8_120
*1456 FILLER_8_124
*1457 FILLER_8_129
*1458 FILLER_8_135
*1459 FILLER_8_139
*1460 FILLER_8_143
*1461 FILLER_8_149
*1462 FILLER_8_153
*1463 FILLER_8_158
*1464 FILLER_8_164
*1465 FILLER_8_169
*1466 FILLER_8_175
*1467 FILLER_8_181
*1468 FILLER_8_192
*1469 FILLER_8_203
*1470 FILLER_8_224
*1471 FILLER_9_1
*1472 FILLER_9_5
*1473 FILLER_9_14
*1474 FILLER_9_18
*1475 FILLER_9_26
*1476 FILLER_9_45
*1477 FILLER_9_60
*1478 FILLER_9_69
*1479 FILLER_9_73
*1480 FILLER_9_82
*1481 FILLER_9_101
*1482 FILLER_9_120
*1483 FILLER_9_125
*1484 FILLER_9_130
*1485 FILLER_9_136
*1486 FILLER_9_143
*1487 FILLER_9_149
*1488 FILLER_9_153
*1489 FILLER_9_159
*1490 FILLER_9_168
*1491 FILLER_9_172
*1492 FILLER_9_180
*1493 FILLER_9_193
*1494 FILLER_9_204
*1495 FILLER_9_223
*1496 FILLER_9_225
*1497 FILLER_10_1
*1498 FILLER_10_5
*1499 FILLER_10_7
*1500 FILLER_10_15
*1501 FILLER_10_34
*1502 FILLER_10_38
*1503 FILLER_10_47
*1504 FILLER_10_49
*1505 FILLER_10_67
*1506 FILLER_10_71
*1507 FILLER_10_73
*1508 FILLER_10_91
*1509 FILLER_10_98
*1510 FILLER_10_110
*1511 FILLER_10_117
*1512 FILLER_10_121
*1513 FILLER_10_127
*1514 FILLER_10_136
*1515 FILLER_10_145
*1516 FILLER_10_156
*1517 FILLER_10_165
*1518 FILLER_10_180
*1519 FILLER_10_199
*1520 FILLER_10_203
*1521 FILLER_10_205
*1522 FILLER_10_213
*1523 FILLER_10_220
*1524 FILLER_10_224
*1525 FILLER_11_1
*1526 FILLER_11_3
*1527 FILLER_11_21
*1528 FILLER_11_30
*1529 FILLER_11_37
*1530 FILLER_11_46
*1531 FILLER_11_65
*1532 FILLER_11_90
*1533 FILLER_11_99
*1534 FILLER_11_103
*1535 FILLER_11_111
*1536 FILLER_11_113
*1537 FILLER_11_121
*1538 FILLER_11_146
*1539 FILLER_11_167
*1540 FILLER_11_173
*1541 FILLER_11_192
*1542 FILLER_11_201
*1543 FILLER_11_205
*1544 FILLER_11_213
*1545 FILLER_11_221
*1546 FILLER_11_225
*1547 FILLER_12_1
*1548 FILLER_12_20
*1549 FILLER_12_25
*1550 FILLER_12_32
*1551 FILLER_12_51
*1552 FILLER_12_66
*1553 FILLER_12_75
*1554 FILLER_12_84
*1555 FILLER_12_103
*1556 FILLER_12_107
*1557 FILLER_12_126
*1558 FILLER_12_130
*1559 FILLER_12_132
*1560 FILLER_12_150
*1561 FILLER_12_154
*1562 FILLER_12_172
*1563 FILLER_12_176
*1564 FILLER_12_178
*1565 FILLER_12_186
*1566 FILLER_12_188
*1567 FILLER_12_194
*1568 FILLER_12_201
*1569 FILLER_12_205
*1570 FILLER_12_224
*1571 FILLER_13_1
*1572 FILLER_13_5
*1573 FILLER_13_23
*1574 FILLER_13_27
*1575 FILLER_13_36
*1576 FILLER_13_55
*1577 FILLER_13_62
*1578 FILLER_13_81
*1579 FILLER_13_88
*1580 FILLER_13_107
*1581 FILLER_13_109
*1582 FILLER_13_127
*1583 FILLER_13_129
*1584 FILLER_13_135
*1585 FILLER_13_144
*1586 FILLER_13_152
*1587 FILLER_13_156
*1588 FILLER_13_158
*1589 FILLER_13_166
*1590 FILLER_13_170
*1591 FILLER_13_177
*1592 FILLER_13_196
*1593 FILLER_13_202
*1594 FILLER_13_224
*1595 FILLER_14_1
*1596 FILLER_14_5
*1597 FILLER_14_7
*1598 FILLER_14_25
*1599 FILLER_14_34
*1600 FILLER_14_41
*1601 FILLER_14_50
*1602 FILLER_14_54
*1603 FILLER_14_62
*1604 FILLER_14_81
*1605 FILLER_14_89
*1606 FILLER_14_98
*1607 FILLER_14_109
*1608 FILLER_14_118
*1609 FILLER_14_127
*1610 FILLER_14_131
*1611 FILLER_14_138
*1612 FILLER_14_147
*1613 FILLER_14_155
*1614 FILLER_14_173
*1615 FILLER_14_181
*1616 FILLER_14_190
*1617 FILLER_14_192
*1618 FILLER_14_198
*1619 FILLER_14_205
*1620 FILLER_14_209
*1621 FILLER_14_214
*1622 FILLER_14_218
*1623 FILLER_15_1
*1624 FILLER_15_22
*1625 FILLER_15_31
*1626 FILLER_15_50
*1627 FILLER_15_54
*1628 FILLER_15_63
*1629 FILLER_15_72
*1630 FILLER_15_79
*1631 FILLER_15_83
*1632 FILLER_15_85
*1633 FILLER_15_93
*1634 FILLER_15_102
*1635 FILLER_15_104
*1636 FILLER_15_122
*1637 FILLER_15_126
*1638 FILLER_15_134
*1639 FILLER_15_153
*1640 FILLER_15_157
*1641 FILLER_15_175
*1642 FILLER_15_196
*1643 FILLER_15_203
*1644 FILLER_15_224
*1645 FILLER_16_1
*1646 FILLER_16_5
*1647 FILLER_16_7
*1648 FILLER_16_25
*1649 FILLER_16_27
*1650 FILLER_16_35
*1651 FILLER_16_54
*1652 FILLER_16_79
*1653 FILLER_16_100
*1654 FILLER_16_104
*1655 FILLER_16_123
*1656 FILLER_16_127
*1657 FILLER_16_146
*1658 FILLER_16_154
*1659 FILLER_16_158
*1660 FILLER_16_167
*1661 FILLER_16_174
*1662 FILLER_16_193
*1663 FILLER_16_195
*1664 FILLER_16_203
*1665 FILLER_16_222
*1666 FILLER_17_1
*1667 FILLER_17_10
*1668 FILLER_17_19
*1669 FILLER_17_23
*1670 FILLER_17_25
*1671 FILLER_17_31
*1672 FILLER_17_40
*1673 FILLER_17_49
*1674 FILLER_17_56
*1675 FILLER_17_60
*1676 FILLER_17_78
*1677 FILLER_17_85
*1678 FILLER_17_104
*1679 FILLER_17_108
*1680 FILLER_17_110
*1681 FILLER_17_118
*1682 FILLER_17_127
*1683 FILLER_17_136
*1684 FILLER_17_140
*1685 FILLER_17_142
*1686 FILLER_17_150
*1687 FILLER_17_157
*1688 FILLER_17_165
*1689 FILLER_17_169
*1690 FILLER_17_178
*1691 FILLER_17_187
*1692 FILLER_17_191
*1693 FILLER_17_197
*1694 FILLER_17_204
*1695 FILLER_17_213
*1696 FILLER_17_221
*1697 FILLER_17_225
*1698 FILLER_18_1
*1699 FILLER_18_5
*1700 FILLER_18_24
*1701 FILLER_18_28
*1702 FILLER_18_35
*1703 FILLER_18_44
*1704 FILLER_18_46
*1705 FILLER_18_54
*1706 FILLER_18_61
*1707 FILLER_18_70
*1708 FILLER_18_74
*1709 FILLER_18_82
*1710 FILLER_18_91
*1711 FILLER_18_93
*1712 FILLER_18_101
*1713 FILLER_18_105
*1714 FILLER_18_107
*1715 FILLER_18_113
*1716 FILLER_18_117
*1717 FILLER_18_119
*1718 FILLER_18_125
*1719 FILLER_18_146
*1720 FILLER_18_150
*1721 FILLER_18_169
*1722 FILLER_18_177
*1723 FILLER_18_179
*1724 FILLER_18_187
*1725 FILLER_18_196
*1726 FILLER_18_200
*1727 FILLER_18_219
*1728 FILLER_18_223
*1729 FILLER_18_225
*1730 FILLER_19_1
*1731 FILLER_19_5
*1732 FILLER_19_24
*1733 FILLER_19_33
*1734 FILLER_19_44
*1735 FILLER_19_63
*1736 FILLER_19_67
*1737 FILLER_19_69
*1738 FILLER_19_77
*1739 FILLER_19_96
*1740 FILLER_19_100
*1741 FILLER_19_102
*1742 FILLER_19_120
*1743 FILLER_19_128
*1744 FILLER_19_147
*1745 FILLER_19_158
*1746 FILLER_19_177
*1747 FILLER_19_196
*1748 FILLER_19_202
*1749 FILLER_19_224
*1750 FILLER_20_1
*1751 FILLER_20_3
*1752 FILLER_20_11
*1753 FILLER_20_30
*1754 FILLER_20_49
*1755 FILLER_20_68
*1756 FILLER_20_72
*1757 FILLER_20_90
*1758 FILLER_20_94
*1759 FILLER_20_102
*1760 FILLER_20_121
*1761 FILLER_20_129
*1762 FILLER_20_138
*1763 FILLER_20_145
*1764 FILLER_20_152
*1765 FILLER_20_160
*1766 FILLER_20_168
*1767 FILLER_20_175
*1768 FILLER_20_191
*1769 FILLER_20_195
*1770 FILLER_20_203
*1771 FILLER_20_212
*1772 FILLER_20_218
*1773 FILLER_20_222
*1774 FILLER_21_1
*1775 FILLER_21_16
*1776 FILLER_21_20
*1777 FILLER_21_28
*1778 FILLER_21_32
*1779 FILLER_21_34
*1780 FILLER_21_40
*1781 FILLER_21_49
*1782 FILLER_21_58
*1783 FILLER_21_67
*1784 FILLER_21_71
*1785 FILLER_21_79
*1786 FILLER_21_88
*1787 FILLER_21_95
*1788 FILLER_21_103
*1789 FILLER_21_114
*1790 FILLER_21_130
*1791 FILLER_21_138
*1792 FILLER_21_159
*1793 FILLER_21_163
*1794 FILLER_21_172
*1795 FILLER_21_176
*1796 FILLER_21_194
*1797 FILLER_21_203
*1798 FILLER_21_205
*1799 FILLER_21_223
*1800 FILLER_21_225
*1801 FILLER_22_1
*1802 FILLER_22_20
*1803 FILLER_22_27
*1804 FILLER_22_43
*1805 FILLER_22_47
*1806 FILLER_22_49
*1807 FILLER_22_67
*1808 FILLER_22_75
*1809 FILLER_22_94
*1810 FILLER_22_98
*1811 FILLER_22_100
*1812 FILLER_22_106
*1813 FILLER_22_115
*1814 FILLER_22_117
*1815 FILLER_22_125
*1816 FILLER_22_144
*1817 FILLER_22_146
*1818 FILLER_22_164
*1819 FILLER_22_183
*1820 FILLER_22_192
*1821 FILLER_22_194
*1822 FILLER_22_202
*1823 FILLER_22_224
*1824 FILLER_23_1
*1825 FILLER_23_26
*1826 FILLER_23_33
*1827 FILLER_23_35
*1828 FILLER_23_41
*1829 FILLER_23_49
*1830 FILLER_23_68
*1831 FILLER_23_72
*1832 FILLER_23_74
*1833 FILLER_23_92
*1834 FILLER_23_96
*1835 FILLER_23_102
*1836 FILLER_23_121
*1837 FILLER_23_123
*1838 FILLER_23_141
*1839 FILLER_23_150
*1840 FILLER_23_161
*1841 FILLER_23_167
*1842 FILLER_23_176
*1843 FILLER_23_185
*1844 FILLER_23_192
*1845 FILLER_23_211
*1846 FILLER_23_217
*1847 FILLER_23_221
*1848 FILLER_23_225
*1849 FILLER_24_1
*1850 FILLER_24_9
*1851 FILLER_24_17
*1852 FILLER_24_36
*1853 FILLER_24_47
*1854 FILLER_24_56
*1855 FILLER_24_65
*1856 FILLER_24_72
*1857 FILLER_24_79
*1858 FILLER_24_88
*1859 FILLER_24_97
*1860 FILLER_24_101
*1861 FILLER_24_119
*1862 FILLER_24_123
*1863 FILLER_24_131
*1864 FILLER_24_140
*1865 FILLER_24_149
*1866 FILLER_24_153
*1867 FILLER_24_160
*1868 FILLER_24_167
*1869 FILLER_24_169
*1870 FILLER_24_172
*1871 FILLER_24_191
*1872 FILLER_24_197
*1873 FILLER_24_205
*1874 FILLER_24_207
*1875 FILLER_24_212
*1876 FILLER_24_218
*1877 FILLER_25_1
*1878 FILLER_25_20
*1879 FILLER_25_31
*1880 FILLER_25_35
*1881 FILLER_25_54
*1882 FILLER_25_61
*1883 FILLER_25_76
*1884 FILLER_25_95
*1885 FILLER_25_102
*1886 FILLER_25_113
*1887 FILLER_25_121
*1888 FILLER_25_129
*1889 FILLER_25_148
*1890 FILLER_25_155
*1891 FILLER_25_157
*1892 FILLER_25_165
*1893 FILLER_25_184
*1894 FILLER_25_191
*1895 FILLER_25_195
*1896 FILLER_25_202
*1897 FILLER_25_224
*1898 FILLER_26_1
*1899 FILLER_26_5
*1900 FILLER_26_7
*1901 FILLER_26_15
*1902 FILLER_26_24
*1903 FILLER_26_31
*1904 FILLER_26_33
*1905 FILLER_26_39
*1906 FILLER_26_41
*1907 FILLER_26_49
*1908 FILLER_26_53
*1909 FILLER_26_59
*1910 FILLER_26_63
*1911 FILLER_26_82
*1912 FILLER_26_89
*1913 FILLER_26_94
*1914 FILLER_26_100
*1915 FILLER_26_104
*1916 FILLER_26_109
*1917 FILLER_26_115
*1918 FILLER_26_119
*1919 FILLER_26_138
*1920 FILLER_26_157
*1921 FILLER_26_164
*1922 FILLER_26_172
*1923 FILLER_26_180
*1924 FILLER_26_193
*1925 FILLER_26_202
*1926 FILLER_26_221
*1927 FILLER_26_225
*1928 FILLER_27_1
*1929 FILLER_27_10
*1930 FILLER_27_29
*1931 FILLER_27_33
*1932 FILLER_27_52
*1933 FILLER_27_71
*1934 FILLER_27_78
*1935 FILLER_27_80
*1936 FILLER_27_98
*1937 FILLER_27_105
*1938 FILLER_27_107
*1939 FILLER_27_128
*1940 FILLER_27_130
*1941 FILLER_27_138
*1942 FILLER_27_147
*1943 FILLER_27_166
*1944 FILLER_27_174
*1945 FILLER_27_183
*1946 FILLER_27_202
*1947 FILLER_27_213
*1948 FILLER_27_221
*1949 FILLER_27_225
*1950 FILLER_28_1
*1951 FILLER_28_5
*1952 FILLER_28_24
*1953 FILLER_28_28
*1954 FILLER_28_46
*1955 FILLER_28_54
*1956 FILLER_28_72
*1957 FILLER_28_76
*1958 FILLER_28_85
*1959 FILLER_28_104
*1960 FILLER_28_108
*1961 FILLER_28_110
*1962 FILLER_28_131
*1963 FILLER_28_150
*1964 FILLER_28_157
*1965 FILLER_28_178
*1966 FILLER_28_197
*1967 FILLER_28_205
*1968 FILLER_28_223
*1969 FILLER_28_225
*1970 FILLER_29_1
*1971 FILLER_29_3
*1972 FILLER_29_21
*1973 FILLER_29_30
*1974 FILLER_29_39
*1975 FILLER_29_47
*1976 FILLER_29_58
*1977 FILLER_29_67
*1978 FILLER_29_83
*1979 FILLER_29_89
*1980 FILLER_29_98
*1981 FILLER_29_114
*1982 FILLER_29_117
*1983 FILLER_29_121
*1984 FILLER_29_129
*1985 FILLER_29_131
*1986 FILLER_29_139
*1987 FILLER_29_155
*1988 FILLER_29_163
*1989 FILLER_29_171
*1990 FILLER_29_179
*1991 FILLER_29_187
*1992 FILLER_29_196
*1993 FILLER_29_212
*1994 FILLER_29_220
*1995 FILLER_29_224

*PORTS
empty O
full O
clk I
rd_data[0] O
rd_data[1] O
rd_data[2] O
rd_data[3] O
rd_data[4] O
rd_data[5] O
rd_data[6] O
rd_data[7] O
rd_en I
rst_n I
wr_data[0] I
wr_data[1] I
wr_data[2] I
wr_data[3] I
wr_data[4] I
wr_data[5] I
wr_data[6] I
wr_data[7] I
wr_en I

*D_NET *1 0.000255106
*CONN
*I *959:D I *D DFFR_X1
*I *885:ZN O *D AOI21_X1
*CAP
1 *959:D 7.45902e-05
2 *885:ZN 7.45902e-05
3 *959:D *959:CK 2.52965e-06
4 *959:D *1098:CK 2.87087e-05
5 *959:D *184:104 5.02897e-05
6 *959:D *246:10 5.0051e-06
7 *959:D *538:10 2.84003e-06
8 *959:D *599:236 1.10223e-05
9 *959:D *649:106 5.52959e-06
*RES
1 *885:ZN *959:D 30 
*END

*D_NET *2 0.000132469
*CONN
*I *960:D I *D DFFR_X1
*I *897:ZN O *D AOI21_X1
*CAP
1 *960:D 5.59447e-05
2 *897:ZN 5.59447e-05
3 *960:D *599:236 0
4 *960:D *649:106 2.05797e-05
*RES
1 *897:ZN *960:D 16.3571 
*END

*D_NET *3 0.000172374
*CONN
*I *961:D I *D DFFR_X1
*I *906:Z O *D MUX2_X1
*CAP
1 *961:D 7.94099e-05
2 *906:Z 7.94099e-05
3 *961:D *695:B 0
4 *961:D *906:A 0
5 *961:D *906:B 8.43215e-07
6 *961:D *906:S 0
7 *961:D *969:RN 0
8 *961:D *183:10 1.27114e-05
9 *961:D *183:23 0
*RES
1 *906:Z *961:D 18.25 
*END

*D_NET *4 0.000148411
*CONN
*I *962:D I *D DFFR_X1
*I *918:ZN O *D AOI21_X1
*CAP
1 *962:D 7.21666e-05
2 *918:ZN 7.21666e-05
3 *962:D *918:A 0
4 *962:D *1104:D 0
5 *962:D *188:134 4.07742e-06
6 *962:D *599:211 0
7 *962:D *641:71 0
*RES
1 *918:ZN *962:D 16.8929 
*END

*D_NET *5 0.000233254
*CONN
*I *963:D I *D DFFR_X1
*I *930:ZN O *D AOI21_X1
*CAP
1 *963:D 8.77119e-05
2 *930:ZN 8.77119e-05
3 *963:D *954:B2 3.99416e-05
4 *963:D *963:CK 3.09143e-06
5 *963:D *965:D 7.12794e-06
6 *963:D *604:36 7.66905e-06
*RES
1 *930:ZN *963:D 20.8571 
*END

*D_NET *6 0.00014133
*CONN
*I *964:D I *D DFFR_X1
*I *942:ZN O *D AOI21_X1
*CAP
1 *964:D 7.0665e-05
2 *942:ZN 7.0665e-05
3 *964:D *665:A 0
4 *964:D *964:RN 0
5 *964:D *979:D 0
*RES
1 *942:ZN *964:D 17.0357 
*END

*D_NET *7 0.000247182
*CONN
*I *965:D I *D DFFR_X1
*I *954:ZN O *D AOI21_X1
*CAP
1 *965:D 6.51687e-05
2 *954:ZN 6.51687e-05
3 *965:D *775:S 6.83995e-05
4 *965:D *923:A4 1.91954e-06
5 *965:D *196:105 0
6 *965:D *309:22 8.43215e-07
7 *965:D *604:36 3.85541e-05
8 *963:D *965:D 7.12794e-06
*RES
1 *954:ZN *965:D 28.6429 
*END

*D_NET *8 0.00026821
*CONN
*I *966:D I *D DFFR_X1
*I *722:ZN O *D AOI21_X1
*CAP
1 *966:D 7.11811e-05
2 *722:ZN 7.11811e-05
3 *966:D *721:A1 1.72405e-05
4 *966:D *722:A 3.32955e-05
5 *966:D *959:RN 3.28714e-05
6 *966:D *592:8 0
7 *966:D *647:92 4.24402e-05
*RES
1 *722:ZN *966:D 29.6071 
*END

*D_NET *9 0.000130482
*CONN
*I *967:D I *D DFFR_X1
*I *869:ZN O *D XNOR2_X1
*CAP
1 *967:D 4.24156e-05
2 *869:ZN 4.24156e-05
3 *967:D *869:B 4.56509e-05
4 *967:D *962:RN 0
5 *967:D *599:75 0
*RES
1 *869:ZN *967:D 15.3571 
*END

*D_NET *10 0.000121144
*CONN
*I *968:D I *D DFFR_X1
*I *870:ZN O *D XNOR2_X1
*CAP
1 *968:D 6.05721e-05
2 *870:ZN 6.05721e-05
3 *968:D *667:B 0
4 *968:D *170:14 0
5 *968:D *639:64 0
*RES
1 *870:ZN *968:D 16.0357 
*END

*D_NET *11 0.000340904
*CONN
*I *969:D I *D DFFR_X1
*I *872:ZN O *D XNOR2_X1
*CAP
1 *969:D 7.18995e-05
2 *872:ZN 7.18995e-05
3 *969:D *872:B 7.72792e-06
4 *969:D *154:14 1.23077e-06
5 *969:D *157:16 1.35124e-05
6 *969:D *184:50 1.75797e-05
7 *969:D *202:12 2.38892e-05
8 *969:D *594:8 2.4656e-05
9 *969:D *594:14 2.99872e-05
10 *969:D *594:45 4.38801e-05
11 *969:D *629:10 5.73957e-06
12 *969:D *639:39 0
13 *969:D *639:50 2.89018e-05
*RES
1 *872:ZN *969:D 31.3571 
*END

*D_NET *12 0.000136048
*CONN
*I *970:D I *D DFFR_X1
*I *873:ZN O *D XNOR2_X1
*CAP
1 *970:D 6.21435e-05
2 *873:ZN 6.21435e-05
3 *970:D *704:A3 0
4 *970:D *594:71 2.39679e-06
5 *970:D *595:47 5.54532e-06
6 *970:D *597:32 3.81848e-06
7 *970:D *639:28 0
*RES
1 *873:ZN *970:D 16.2857 
*END

*D_NET *13 0.000293335
*CONN
*I *971:D I *D DFFR_X1
*I *695:ZN O *D XNOR2_X1
*CAP
1 *971:D 0.000108363
2 *695:ZN 0.000108363
3 *971:D *688:B2 0
4 *971:D *695:A 1.26075e-05
5 *971:D *695:B 0
6 *971:D *729:A 3.23209e-05
7 *971:D *170:39 0
8 *971:D *172:6 0
9 *971:D *598:23 1.48992e-05
10 *971:D *613:25 1.67818e-05
*RES
1 *695:ZN *971:D 22.7143 
*END

*D_NET *14 0.000211883
*CONN
*I *972:D I *D DFFR_X1
*I *955:ZN O *D XNOR2_X1
*CAP
1 *972:D 7.74519e-05
2 *955:ZN 7.74519e-05
3 *972:D *654:A 2.23871e-06
4 *972:D *972:CK 5.21562e-05
5 *972:D *153:6 2.58433e-06
*RES
1 *955:ZN *972:D 19.7857 
*END

*D_NET *15 0.000179188
*CONN
*I *973:D I *D DFFR_X1
*I *956:ZN O *D XNOR2_X1
*CAP
1 *973:D 4.18949e-05
2 *956:ZN 4.18949e-05
3 *973:D *956:B 2.58428e-06
4 *973:D *968:CK 2.51997e-05
5 *973:D *973:RN 5.57182e-06
6 *973:D *599:159 8.72685e-06
7 *973:D *609:51 0
8 *973:D *638:58 5.33151e-05
*RES
1 *956:ZN *973:D 25.5714 
*END

*D_NET *16 0.000268413
*CONN
*I *974:D I *D DFFR_X1
*I *957:ZN O *D XNOR2_X1
*CAP
1 *974:D 6.69853e-05
2 *957:ZN 6.69853e-05
3 *974:D *964:RN 2.36789e-05
4 *974:D *974:CK 4.29819e-05
5 *974:D *223:14 2.23871e-06
6 *974:D *599:139 1.11168e-06
7 *974:D *611:12 0
8 *974:D *616:20 0
9 *974:D *638:36 0
10 *974:D *638:47 6.44316e-05
*RES
1 *957:ZN *974:D 29.4286 
*END

*D_NET *17 0.000195118
*CONN
*I *975:D I *D DFFR_X1
*I *958:ZN O *D XNOR2_X1
*CAP
1 *975:D 4.34022e-05
2 *958:ZN 4.34022e-05
3 *975:D *657:A 7.19036e-06
4 *975:D *726:A1 5.54348e-05
5 *975:D *156:10 1.12411e-05
6 *975:D *158:14 1.37707e-05
7 *975:D *216:24 2.06764e-05
*RES
1 *958:ZN *975:D 26.7143 
*END

*D_NET *18 0.000106016
*CONN
*I *976:D I *D DFFR_X1
*I *729:Z O *D XOR2_X1
*CAP
1 *976:D 3.5144e-05
2 *729:Z 3.5144e-05
3 *976:D *675:A1 2.23415e-06
4 *976:D *968:RN 2.30003e-05
5 *976:D *971:CK 7.9309e-06
6 *976:D *170:24 2.56243e-06
*RES
1 *729:Z *976:D 14.25 
*END

*D_NET *19 0.000251909
*CONN
*I *977:D I *D DFF_X1
*I *862:Z O *D MUX2_X1
*CAP
1 *977:D 9.61777e-05
2 *862:Z 9.61777e-05
3 *977:D *862:B 4.9678e-06
4 *977:D *977:CK 8.43215e-07
5 *977:D *206:42 2.67625e-05
6 *977:D *600:105 0
7 *977:D *607:82 2.698e-05
8 *977:D *622:61 0
*RES
1 *862:Z *977:D 30.5714 
*END

*D_NET *20 0.000120778
*CONN
*I *978:D I *D DFF_X1
*I *863:Z O *D MUX2_X1
*CAP
1 *978:D 5.24411e-05
2 *863:Z 5.24411e-05
3 *978:D *978:CK 0
4 *978:D *212:65 1.5896e-05
*RES
1 *863:Z *978:D 16.2857 
*END

*D_NET *21 0.000227913
*CONN
*I *979:D I *D DFF_X1
*I *864:Z O *D MUX2_X1
*CAP
1 *979:D 6.90525e-05
2 *864:Z 6.90525e-05
3 *979:D *942:A 4.86762e-05
4 *979:D *979:CK 3.83007e-05
5 *979:D *510:12 2.83077e-06
6 *964:D *979:D 0
*RES
1 *864:Z *979:D 19.6429 
*END

*D_NET *22 0.000117246
*CONN
*I *980:D I *D DFF_X1
*I *865:Z O *D MUX2_X1
*CAP
1 *980:D 4.16721e-05
2 *865:Z 4.16721e-05
3 *980:D *823:S 0
4 *980:D *865:B 2.39679e-06
5 *980:D *980:CK 6.38328e-07
6 *980:D *1028:D 0
7 *980:D *212:18 2.63087e-06
8 *980:D *212:65 2.82357e-05
*RES
1 *865:Z *980:D 14.6786 
*END

*D_NET *23 0.000393011
*CONN
*I *981:D I *D DFF_X1
*I *866:Z O *D MUX2_X1
*CAP
1 *981:D 0.000129152
2 *866:Z 0.000129152
3 *981:D *854:A 1.52083e-06
4 *981:D *854:S 0.000106864
5 *981:D *214:14 0
6 *981:D *227:106 0
7 *981:D *461:10 2.21606e-05
8 *981:D *604:88 4.16195e-06
9 *981:D *619:105 0
*RES
1 *866:Z *981:D 35.25 
*END

*D_NET *24 0.000217662
*CONN
*I *982:D I *D DFF_X1
*I *867:Z O *D MUX2_X1
*CAP
1 *982:D 8.92731e-05
2 *867:Z 8.92731e-05
3 *982:D *867:B 3.30471e-05
4 *982:D *898:A1 0
5 *982:D *1054:D 6.06867e-06
6 *982:D *579:8 0
7 *982:D *616:30 0
*RES
1 *867:Z *982:D 19.6786 
*END

*D_NET *25 0.000121317
*CONN
*I *983:D I *D DFF_X1
*I *868:Z O *D MUX2_X1
*CAP
1 *983:D 4.94661e-05
2 *868:Z 4.94661e-05
3 *983:D *868:A 5.8848e-06
4 *983:D *946:B2 1.26998e-05
5 *983:D *302:14 3.80063e-06
*RES
1 *868:Z *983:D 15.3571 
*END

*D_NET *26 0.000262969
*CONN
*I *984:D I *D DFF_X1
*I *744:Z O *D MUX2_X1
*CAP
1 *984:D 5.94902e-05
2 *744:Z 5.94902e-05
3 *984:D *719:B1 9.44209e-05
4 *984:D *719:B2 0
5 *984:D *744:B 0
6 *984:D *607:54 1.11898e-05
7 *984:D *607:60 0
8 *984:D *642:72 3.83783e-05
*RES
1 *744:Z *984:D 28.75 
*END

*D_NET *27 0.000307236
*CONN
*I *985:D I *D DFF_X1
*I *855:Z O *D MUX2_X1
*CAP
1 *985:D 5.38646e-05
2 *855:Z 5.38646e-05
3 *985:D *1043:CK 6.0061e-05
4 *985:D *208:22 9.31588e-05
5 *985:D *212:32 6.54288e-06
6 *985:D *216:81 4.12833e-06
7 *985:D *225:20 6.54288e-06
8 *985:D *231:31 2.68657e-05
9 *985:D *640:14 2.20742e-06
*RES
1 *855:Z *985:D 28.5 
*END

*D_NET *28 0.000173859
*CONN
*I *986:D I *D DFF_X1
*I *856:Z O *D MUX2_X1
*CAP
1 *986:D 3.7677e-05
2 *856:Z 3.7677e-05
3 *986:D *849:B 3.26972e-05
4 *986:D *205:75 4.11023e-05
5 *986:D *621:42 1.13292e-05
6 *986:D *625:33 1.33766e-05
*RES
1 *856:Z *986:D 25.5357 
*END

*D_NET *29 0.000197161
*CONN
*I *987:D I *D DFF_X1
*I *857:Z O *D MUX2_X1
*CAP
1 *987:D 6.88445e-05
2 *857:Z 6.88445e-05
3 *987:D *602:32 4.19057e-06
4 *987:D *602:47 1.88479e-06
5 *987:D *618:37 4.6749e-05
6 *987:D *634:20 1.21774e-06
7 *987:D *634:22 5.43035e-06
*RES
1 *857:Z *987:D 27.3929 
*END

*D_NET *30 0.000380903
*CONN
*I *988:D I *D DFF_X1
*I *858:Z O *D MUX2_X1
*CAP
1 *988:D 0.000161303
2 *858:Z 0.000161303
3 *988:D *795:A 6.0887e-06
4 *988:D *795:S 8.26038e-06
5 *988:D *858:A 0
6 *988:D *1060:D 3.96215e-05
7 *988:D *618:56 4.32759e-06
8 *988:D *636:26 0
9 *988:D *636:33 0
*RES
1 *858:Z *988:D 27.8214 
*END

*D_NET *31 0.000218791
*CONN
*I *989:D I *D DFF_X1
*I *859:Z O *D MUX2_X1
*CAP
1 *989:D 7.06493e-05
2 *859:Z 7.06493e-05
3 *989:D *768:A 0
4 *989:D *777:B 0
5 *989:D *859:S 1.28194e-05
6 *989:D *232:67 3.23363e-05
7 *989:D *644:55 3.23363e-05
*RES
1 *859:Z *989:D 28.25 
*END

*D_NET *32 9.6668e-05
*CONN
*I *990:D I *D DFF_X1
*I *860:Z O *D MUX2_X1
*CAP
1 *990:D 4.74507e-05
2 *860:Z 4.74507e-05
3 *990:D *932:A2 0
4 *990:D *224:29 1.76665e-06
*RES
1 *860:Z *990:D 15 
*END

*D_NET *33 0.00026185
*CONN
*I *991:D I *D DFF_X1
*I *861:Z O *D MUX2_X1
*CAP
1 *991:D 8.05254e-05
2 *861:Z 8.05254e-05
3 *991:D *777:B 9.24246e-06
4 *991:D *777:S 2.07643e-05
5 *991:D *784:S 0
6 *991:D *861:A 6.81795e-05
7 *991:D *991:CK 0
8 *991:D *644:47 2.39679e-06
9 *991:D *644:55 2.16072e-07
*RES
1 *861:Z *991:D 30.25 
*END

*D_NET *34 0.000197856
*CONN
*I *992:D I *D DFF_X1
*I *750:Z O *D MUX2_X1
*CAP
1 *992:D 9.64504e-05
2 *750:Z 9.64504e-05
3 *992:D *992:CK 6.38328e-07
4 *992:D *232:50 4.31736e-06
*RES
1 *750:Z *992:D 20.3571 
*END

*D_NET *35 9.95825e-05
*CONN
*I *993:D I *D DFF_X1
*I *848:Z O *D MUX2_X1
*CAP
1 *993:D 4.63523e-05
2 *848:Z 4.63523e-05
3 *993:D *848:B 6.87788e-06
4 *993:D *633:268 0
5 *993:D *633:275 0
*RES
1 *848:Z *993:D 14.6786 
*END

*D_NET *36 0.000123044
*CONN
*I *994:D I *D DFF_X1
*I *849:Z O *D MUX2_X1
*CAP
1 *994:D 4.32416e-05
2 *849:Z 4.32416e-05
3 *994:D *849:B 3.24801e-05
4 *994:D *621:42 4.08099e-06
*RES
1 *849:Z *994:D 14.8571 
*END

*D_NET *37 0.000379937
*CONN
*I *995:D I *D DFF_X1
*I *850:Z O *D MUX2_X1
*CAP
1 *995:D 0.000102823
2 *850:Z 0.000102823
3 *995:D *846:S 2.82197e-05
4 *995:D *850:B 1.36766e-05
5 *995:D *902:A4 5.11918e-05
6 *995:D *258:24 3.64208e-05
7 *995:D *260:18 1.65627e-05
8 *995:D *602:58 0
9 *995:D *634:10 1.23499e-05
10 *995:D *634:12 1.58699e-05
*RES
1 *850:Z *995:D 33.5 
*END

*D_NET *38 0.000152409
*CONN
*I *996:D I *D DFF_X1
*I *851:Z O *D MUX2_X1
*CAP
1 *996:D 5.0196e-05
2 *851:Z 5.0196e-05
3 *996:D *911:A1 0
4 *996:D *911:A3 4.47576e-05
5 *996:D *212:36 2.1479e-06
6 *996:D *270:14 5.11191e-06
7 *996:D *626:57 0
*RES
1 *851:Z *996:D 26.0357 
*END

*D_NET *39 0.000197155
*CONN
*I *997:D I *D DFF_X1
*I *852:Z O *D MUX2_X1
*CAP
1 *997:D 6.17423e-05
2 *852:Z 6.17423e-05
3 *997:D *852:A 3.83327e-06
4 *997:D *923:A2 9.95569e-06
5 *997:D *214:14 2.78991e-05
6 *997:D *223:83 3.19821e-05
*RES
1 *852:Z *997:D 27.5714 
*END

*D_NET *40 0.000110897
*CONN
*I *998:D I *D DFF_X1
*I *853:Z O *D MUX2_X1
*CAP
1 *998:D 5.25715e-05
2 *853:Z 5.25715e-05
3 *998:D *998:CK 5.75407e-06
4 *998:D *605:21 0
*RES
1 *853:Z *998:D 15.3571 
*END

*D_NET *41 0.000289753
*CONN
*I *999:D I *D DFF_X1
*I *854:Z O *D MUX2_X1
*CAP
1 *999:D 6.17914e-05
2 *854:Z 6.17914e-05
3 *999:D *868:S 8.48386e-05
4 *999:D *619:105 8.13315e-05
*RES
1 *854:Z *999:D 19.8571 
*END

*D_NET *42 0.000119801
*CONN
*I *1000:D I *D DFF_X1
*I *754:Z O *D MUX2_X1
*CAP
1 *1000:D 4.98638e-05
2 *754:Z 4.98638e-05
3 *1000:D *844:B 0
4 *1000:D *909:B1 3.52448e-06
5 *1000:D *528:12 1.65484e-05
6 *1000:D *626:57 0
*RES
1 *754:Z *1000:D 25.5357 
*END

*D_NET *43 9.68541e-05
*CONN
*I *1001:D I *D DFF_X1
*I *841:Z O *D MUX2_X1
*CAP
1 *1001:D 4.42628e-05
2 *841:Z 4.42628e-05
3 *1001:D *892:B1 8.32851e-06
4 *1001:D *892:B2 0
*RES
1 *841:Z *1001:D 15 
*END

*D_NET *44 0.00019368
*CONN
*I *1002:D I *D DFF_X1
*I *842:Z O *D MUX2_X1
*CAP
1 *1002:D 7.53341e-05
2 *842:Z 7.53341e-05
3 *1002:D *778:A 0
4 *1002:D *877:B2 0
5 *1002:D *892:B1 0
6 *1002:D *196:103 3.50282e-05
7 *1002:D *230:37 6.06867e-06
8 *1002:D *648:94 6.38328e-07
9 *1002:D *648:105 1.27666e-06
*RES
1 *842:Z *1002:D 28.75 
*END

*D_NET *45 0.000189768
*CONN
*I *1003:D I *D DFF_X1
*I *843:Z O *D MUX2_X1
*CAP
1 *1003:D 4.70413e-05
2 *843:Z 4.70413e-05
3 *1003:D *262:10 1.46266e-05
4 *1003:D *602:95 1.55619e-05
5 *1003:D *602:110 1.14365e-05
6 *1003:D *616:45 1.51496e-05
7 *1003:D *619:54 3.89107e-05
*RES
1 *843:Z *1003:D 27.3929 
*END

*D_NET *46 0.000232355
*CONN
*I *1004:D I *D DFF_X1
*I *844:Z O *D MUX2_X1
*CAP
1 *1004:D 6.65178e-05
2 *844:Z 6.65178e-05
3 *1004:D *909:A2 9.43888e-05
4 *1004:D *911:A3 0
5 *1004:D *524:10 4.93042e-06
6 *1004:D *619:54 0
*RES
1 *844:Z *1004:D 28.25 
*END

*D_NET *47 0.000147078
*CONN
*I *1005:D I *D DFF_X1
*I *845:Z O *D MUX2_X1
*CAP
1 *1005:D 6.75151e-05
2 *845:Z 6.75151e-05
3 *1005:D *845:B 1.20474e-05
*RES
1 *845:Z *1005:D 17.1429 
*END

*D_NET *48 0.000284084
*CONN
*I *1006:D I *D DFF_X1
*I *846:Z O *D MUX2_X1
*CAP
1 *1006:D 7.247e-05
2 *846:Z 7.247e-05
3 *1006:D *787:S 7.40328e-06
4 *1006:D *846:A 0.000105041
5 *1006:D *938:B1 1.48183e-05
6 *1006:D *258:24 1.11168e-06
7 *1006:D *523:10 1.07701e-05
8 *1006:D *605:53 0
*RES
1 *846:Z *1006:D 29.4286 
*END

*D_NET *49 0.000229059
*CONN
*I *1007:D I *D DFF_X1
*I *847:Z O *D MUX2_X1
*CAP
1 *1007:D 7.77927e-05
2 *847:Z 7.77927e-05
3 *1007:D *944:A1 3.90891e-05
4 *1007:D *947:A3 2.57598e-05
5 *1007:D *606:36 8.62472e-06
6 *1007:D *644:124 0
*RES
1 *847:Z *1007:D 30.1071 
*END

*D_NET *50 0.0002694
*CONN
*I *1008:D I *D DFF_X1
*I *748:Z O *D MUX2_X1
*CAP
1 *1008:D 7.97979e-05
2 *748:Z 7.97979e-05
3 *1008:D *719:A2 1.59719e-05
4 *1008:D *748:A 1.4515e-05
5 *1008:D *622:63 4.16268e-05
6 *1008:D *628:71 3.76907e-05
*RES
1 *748:Z *1008:D 31.0357 
*END

*D_NET *51 0.000299595
*CONN
*I *1009:D I *D DFF_X1
*I *834:Z O *D MUX2_X1
*CAP
1 *1009:D 8.23035e-05
2 *834:Z 8.23035e-05
3 *1009:D *883:A1 1.98004e-05
4 *1009:D *231:60 5.47158e-05
5 *1009:D *270:20 5.5389e-05
6 *1009:D *600:77 5.08276e-06
*RES
1 *834:Z *1009:D 31.6429 
*END

*D_NET *52 0.000176707
*CONN
*I *1010:D I *D DFF_X1
*I *835:Z O *D MUX2_X1
*CAP
1 *1010:D 4.19536e-05
2 *835:Z 4.19536e-05
3 *1010:D *890:A2 1.0174e-05
4 *1010:D *891:B1 3.83757e-05
5 *1010:D *246:10 5.24467e-06
6 *1010:D *538:10 1.16229e-06
7 *1010:D *601:57 3.78433e-05
*RES
1 *835:Z *1010:D 26.0357 
*END

*D_NET *53 0.000532599
*CONN
*I *1011:D I *D DFF_X1
*I *836:Z O *D MUX2_X1
*CAP
1 *1011:D 4.32199e-05
2 *836:Z 4.32199e-05
3 *1011:D *903:C2 7.19036e-06
4 *1011:D *216:24 0.000209
5 *1011:D *223:35 7.19036e-06
6 *1011:D *635:10 1.72405e-05
7 *1011:D *635:99 3.02372e-05
8 *1011:D *635:108 0.000133403
9 *1011:D *635:119 4.18985e-05
*RES
1 *836:Z *1011:D 31.8571 
*END

*D_NET *54 0.000416352
*CONN
*I *1012:D I *D DFF_X1
*I *837:Z O *D MUX2_X1
*CAP
1 *1012:D 0.000110917
2 *837:Z 0.000110917
3 *1012:D *809:B 3.85541e-05
4 *1012:D *830:A 1.23222e-05
5 *1012:D *912:A2 0.000143642
6 *1012:D *912:B1 0
7 *1012:D *195:16 0
8 *1012:D *202:27 0
9 *1012:D *540:8 0
*RES
1 *837:Z *1012:D 33.5 
*END

*D_NET *55 0.000372935
*CONN
*I *1013:D I *D DFF_X1
*I *838:Z O *D MUX2_X1
*CAP
1 *1013:D 0.00014259
2 *838:Z 0.00014259
3 *1013:D *838:A 2.72171e-06
4 *1013:D *838:S 3.01743e-06
5 *1013:D *868:B 1.11168e-06
6 *1013:D *199:48 2.77342e-05
7 *1013:D *227:106 3.26032e-06
8 *1013:D *302:14 3.10691e-05
9 *1013:D *604:76 8.07734e-06
10 *1013:D *604:80 1.07633e-05
*RES
1 *838:Z *1013:D 36.4643 
*END

*D_NET *56 0.000164516
*CONN
*I *1014:D I *D DFF_X1
*I *839:Z O *D MUX2_X1
*CAP
1 *1014:D 6.69544e-05
2 *839:Z 6.69544e-05
3 *1014:D *839:A 2.15652e-05
4 *1014:D *839:S 2.52965e-06
5 *1014:D *938:A1 5.32678e-06
6 *1014:D *1035:D 0
7 *1014:D *635:27 1.18547e-06
*RES
1 *839:Z *1014:D 17.1429 
*END

*D_NET *57 0.000192452
*CONN
*I *1015:D I *D DFF_X1
*I *840:Z O *D MUX2_X1
*CAP
1 *1015:D 5.04641e-05
2 *840:Z 5.04641e-05
3 *1015:D *840:A 3.28714e-05
4 *1015:D *1095:D 1.32732e-05
5 *1015:D *199:48 1.57711e-05
6 *1015:D *604:76 2.96081e-05
*RES
1 *840:Z *1015:D 27.5714 
*END

*D_NET *58 0.000177629
*CONN
*I *1016:D I *D DFF_X1
*I *724:Z O *D MUX2_X1
*CAP
1 *1016:D 2.73092e-05
2 *724:Z 2.73092e-05
3 *1016:D *734:B 3.18009e-05
4 *1016:D *544:8 9.12093e-05
*RES
1 *724:Z *1016:D 25 
*END

*D_NET *59 0.000137263
*CONN
*I *1017:D I *D DFF_X1
*I *827:Z O *D MUX2_X1
*CAP
1 *1017:D 4.82612e-05
2 *827:Z 4.82612e-05
3 *1017:D *1205:A 4.51313e-06
4 *1017:D *621:25 3.62279e-05
*RES
1 *827:Z *1017:D 15.3571 
*END

*D_NET *60 0.000310696
*CONN
*I *1018:D I *D DFF_X1
*I *828:Z O *D MUX2_X1
*CAP
1 *1018:D 0.000106287
2 *828:Z 0.000106287
3 *1018:D *786:A 0
4 *1018:D *786:S 0
5 *1018:D *828:A 7.87941e-05
6 *1018:D *828:S 1.76415e-05
7 *1018:D *1066:D 0
8 *1018:D *1066:CK 0
9 *1018:D *253:12 1.68643e-06
10 *1018:D *474:8 0
*RES
1 *828:Z *1018:D 32.5714 
*END

*D_NET *61 0.000288603
*CONN
*I *1019:D I *D DFF_X1
*I *829:Z O *D MUX2_X1
*CAP
1 *1019:D 7.58386e-05
2 *829:Z 7.58386e-05
3 *1019:D *829:A 1.48912e-05
4 *1019:D *829:B 6.88146e-06
5 *1019:D *190:30 1.2245e-05
6 *1019:D *208:36 3.46622e-05
7 *1019:D *232:14 1.94153e-05
8 *1019:D *547:8 1.04526e-05
9 *1019:D *632:70 3.83783e-05
*RES
1 *829:Z *1019:D 30.7857 
*END

*D_NET *62 0.000225889
*CONN
*I *1020:D I *D DFF_X1
*I *830:Z O *D MUX2_X1
*CAP
1 *1020:D 6.52996e-05
2 *830:Z 6.52996e-05
3 *1020:D *830:B 1.74293e-05
4 *1020:D *234:41 3.35055e-05
5 *1020:D *641:10 4.43546e-05
*RES
1 *830:Z *1020:D 18.75 
*END

*D_NET *63 0.000177117
*CONN
*I *1021:D I *D DFF_X1
*I *831:Z O *D MUX2_X1
*CAP
1 *1021:D 6.59922e-05
2 *831:Z 6.59922e-05
3 *1021:D *831:A 1.52648e-05
4 *1021:D *831:S 7.66675e-07
5 *1021:D *953:A1 1.7644e-05
6 *1021:D *309:22 5.91521e-06
7 *1021:D *604:19 4.69891e-06
8 *1021:D *606:9 0
9 *1021:D *645:80 8.43215e-07
*RES
1 *831:Z *1021:D 28.0714 
*END

*D_NET *64 0.000244258
*CONN
*I *1022:D I *D DFF_X1
*I *832:Z O *D MUX2_X1
*CAP
1 *1022:D 5.70005e-05
2 *832:Z 5.70005e-05
3 *1022:D *783:A 4.25496e-05
4 *1022:D *1022:CK 3.19164e-07
5 *1022:D *1078:D 1.70661e-05
6 *1022:D *196:28 2.89018e-05
7 *1022:D *603:83 2.89018e-05
8 *1022:D *633:46 0
9 *1022:D *637:27 1.25189e-05
*RES
1 *832:Z *1022:D 28.0357 
*END

*D_NET *65 0.000343811
*CONN
*I *1023:D I *D DFF_X1
*I *833:Z O *D MUX2_X1
*CAP
1 *1023:D 0.00011064
2 *833:Z 0.00011064
3 *1023:D *833:A 0
4 *1023:D *1047:D 3.74737e-05
5 *1023:D *181:73 7.50309e-05
6 *1023:D *303:12 1.00267e-05
*RES
1 *833:Z *1023:D 24.1786 
*END

*D_NET *66 0.000391863
*CONN
*I *1024:D I *D DFF_X1
*I *682:Z O *D MUX2_X1
*CAP
1 *1024:D 0.000107588
2 *682:Z 0.000107588
3 *1024:D *740:A 0
4 *1024:D *746:B 1.04526e-05
5 *1024:D *178:105 8.34941e-06
6 *1024:D *181:109 5.56098e-05
7 *1024:D *226:82 5.61423e-05
8 *1024:D *552:12 0
9 *1024:D *607:137 1.73919e-05
10 *1024:D *647:68 2.87411e-05
*RES
1 *682:Z *1024:D 33.6429 
*END

*D_NET *67 0.00020495
*CONN
*I *1025:D I *D DFF_X1
*I *820:Z O *D MUX2_X1
*CAP
1 *1025:D 7.26152e-05
2 *820:Z 7.26152e-05
3 *1025:D *993:CK 2.16072e-07
4 *1025:D *997:CK 5.91521e-06
5 *1025:D *224:44 6.31374e-06
6 *1025:D *224:57 2.77222e-05
7 *1025:D *233:48 0
8 *1025:D *633:281 1.60613e-05
9 *1025:D *633:367 3.49085e-06
*RES
1 *820:Z *1025:D 28.75 
*END

*D_NET *68 0.000125251
*CONN
*I *1026:D I *D DFF_X1
*I *821:Z O *D MUX2_X1
*CAP
1 *1026:D 5.74751e-05
2 *821:Z 5.74751e-05
3 *1026:D *821:S 3.32724e-06
4 *1026:D *894:B2 0
5 *1026:D *1026:CK 3.19164e-07
6 *1026:D *627:26 6.65423e-06
*RES
1 *821:Z *1026:D 15.5357 
*END

*D_NET *69 0.000227489
*CONN
*I *1027:D I *D DFF_X1
*I *822:Z O *D MUX2_X1
*CAP
1 *1027:D 5.65835e-05
2 *822:Z 5.65835e-05
3 *1027:D *903:C2 3.7117e-05
4 *1027:D *223:35 3.7117e-05
5 *1027:D *618:12 2.03657e-05
6 *1027:D *629:10 1.97225e-05
*RES
1 *822:Z *1027:D 28.75 
*END

*D_NET *70 0.000347205
*CONN
*I *1028:D I *D DFF_X1
*I *823:Z O *D MUX2_X1
*CAP
1 *1028:D 9.16324e-05
2 *823:Z 9.16324e-05
3 *1028:D *823:B 2.16072e-07
4 *1028:D *823:S 6.85848e-05
5 *1028:D *980:CK 5.3864e-05
6 *1028:D *193:38 2.31685e-05
7 *1028:D *460:6 5.59226e-06
8 *1028:D *603:96 5.56936e-06
9 *1028:D *603:111 6.9451e-06
10 *980:D *1028:D 0
*RES
1 *823:Z *1028:D 32.1429 
*END

*D_NET *71 0.000311161
*CONN
*I *1029:D I *D DFF_X1
*I *824:Z O *D MUX2_X1
*CAP
1 *1029:D 6.5468e-05
2 *824:Z 6.5468e-05
3 *1029:D *950:A2 3.52448e-06
4 *1029:D *223:83 3.21622e-05
5 *1029:D *224:44 2.79697e-05
6 *1029:D *622:63 0.000116569
7 *1029:D *633:281 0
*RES
1 *824:Z *1029:D 29.6071 
*END

*D_NET *72 0.00015734
*CONN
*I *1030:D I *D DFF_X1
*I *825:Z O *D MUX2_X1
*CAP
1 *1030:D 4.57067e-05
2 *825:Z 4.57067e-05
3 *1030:D *825:A 0
4 *1030:D *1030:CK 2.39679e-06
5 *1030:D *181:29 2.24783e-06
6 *1030:D *224:29 0
7 *1030:D *270:20 1.67316e-05
8 *1030:D *630:35 1.68643e-06
9 *1030:D *630:39 4.28644e-05
*RES
1 *825:Z *1030:D 25.5357 
*END

*D_NET *73 0.000152135
*CONN
*I *1031:D I *D DFF_X1
*I *826:Z O *D MUX2_X1
*CAP
1 *1031:D 6.62725e-05
2 *826:Z 6.62725e-05
3 *1031:D *826:B 1.28003e-05
4 *1031:D *1031:CK 6.07323e-06
5 *1031:D *633:285 7.16188e-07
*RES
1 *826:Z *1031:D 17.6071 
*END

*D_NET *74 0.000140868
*CONN
*I *1032:D I *D DFF_X1
*I *736:Z O *D MUX2_X1
*CAP
1 *1032:D 5.02551e-05
2 *736:Z 5.02551e-05
3 *1032:D *742:B 2.23415e-06
4 *1032:D *1064:CK 2.75346e-06
5 *1032:D *607:99 2.25683e-05
6 *1032:D *627:16 1.28019e-05
*RES
1 *736:Z *1032:D 16.4643 
*END

*D_NET *75 0.000188923
*CONN
*I *1033:D I *D DFF_X1
*I *813:Z O *D MUX2_X1
*CAP
1 *1033:D 6.9488e-05
2 *813:Z 6.9488e-05
3 *1033:D *196:12 3.95126e-06
4 *1033:D *270:20 2.90135e-05
5 *1033:D *621:25 0
6 *1033:D *622:48 1.45851e-05
7 *1033:D *640:47 2.39679e-06
*RES
1 *813:Z *1033:D 28.0714 
*END

*D_NET *76 0.000171865
*CONN
*I *1034:D I *D DFF_X1
*I *814:Z O *D MUX2_X1
*CAP
1 *1034:D 2.09952e-05
2 *814:Z 2.09952e-05
3 *1034:D *562:8 9.41709e-05
4 *1034:D *649:121 2.06764e-05
5 *1034:D *649:141 1.50276e-05
*RES
1 *814:Z *1034:D 25 
*END

*D_NET *77 0.000292414
*CONN
*I *1035:D I *D DFF_X1
*I *815:Z O *D MUX2_X1
*CAP
1 *1035:D 9.06987e-05
2 *815:Z 9.06987e-05
3 *1035:D *900:A1 2.74605e-05
4 *1035:D *1035:CK 4.8638e-05
5 *1035:D *190:22 1.92742e-05
6 *1035:D *260:18 3.39487e-06
7 *1035:D *632:70 1.22489e-05
8 *1014:D *1035:D 0
*RES
1 *815:Z *1035:D 22.4643 
*END

*D_NET *78 0.000117118
*CONN
*I *1036:D I *D DFF_X1
*I *816:Z O *D MUX2_X1
*CAP
1 *1036:D 4.04135e-05
2 *816:Z 4.04135e-05
3 *1036:D *962:RN 3.35822e-05
4 *1036:D *1044:D 2.70833e-06
5 *1036:D *184:52 0
*RES
1 *816:Z *1036:D 14.8571 
*END

*D_NET *79 0.000221227
*CONN
*I *1037:D I *D DFF_X1
*I *817:Z O *D MUX2_X1
*CAP
1 *1037:D 5.99913e-05
2 *817:Z 5.99913e-05
3 *1037:D *923:A3 2.28879e-05
4 *1037:D *997:CK 0
5 *1037:D *1037:CK 1.98272e-06
6 *1037:D *205:75 1.60386e-06
7 *1037:D *565:10 2.83151e-05
8 *1037:D *600:29 6.08369e-06
9 *1037:D *604:63 6.38328e-07
10 *1037:D *621:48 3.97332e-05
*RES
1 *817:Z *1037:D 28.1429 
*END

*D_NET *80 0.000356489
*CONN
*I *1038:D I *D DFF_X1
*I *818:Z O *D MUX2_X1
*CAP
1 *1038:D 8.72456e-05
2 *818:Z 8.72456e-05
3 *1038:D *811:A 4.26902e-05
4 *1038:D *818:B 1.28987e-05
5 *1038:D *909:A2 8.04708e-06
6 *1038:D *933:A2 6.51841e-05
7 *1038:D *1046:D 2.23174e-05
8 *1038:D *270:14 1.91975e-05
9 *1038:D *632:70 1.16632e-05
*RES
1 *818:Z *1038:D 33.2857 
*END

*D_NET *81 0.000221261
*CONN
*I *1039:D I *D DFF_X1
*I *819:Z O *D MUX2_X1
*CAP
1 *1039:D 5.71578e-05
2 *819:Z 5.71578e-05
3 *1039:D *819:A 1.33919e-05
4 *1039:D *819:S 3.01743e-06
5 *1039:D *943:A2 1.06934e-05
6 *1039:D *952:A2 7.98429e-05
7 *1039:D *181:73 0
*RES
1 *819:Z *1039:D 27.5714 
*END

*D_NET *82 0.000285217
*CONN
*I *1040:D I *D DFF_X1
*I *746:Z O *D MUX2_X1
*CAP
1 *1040:D 9.81652e-05
2 *746:Z 9.81652e-05
3 *1040:D *722:A 6.67501e-06
4 *1040:D *758:S 4.6573e-05
5 *1040:D *184:73 2.26406e-05
6 *1040:D *184:92 1.29982e-05
*RES
1 *746:Z *1040:D 31.7143 
*END

*D_NET *83 0.000216368
*CONN
*I *1041:D I *D DFF_X1
*I *806:Z O *D MUX2_X1
*CAP
1 *1041:D 5.67156e-05
2 *806:Z 5.67156e-05
3 *1041:D *806:A 7.72792e-06
4 *1041:D *806:B 1.41087e-05
5 *1041:D *806:S 1.34605e-05
6 *1041:D *569:10 6.76399e-05
*RES
1 *806:Z *1041:D 27.6429 
*END

*D_NET *84 0.000100583
*CONN
*I *1042:D I *D DFF_X1
*I *807:Z O *D MUX2_X1
*CAP
1 *1042:D 3.96857e-05
2 *807:Z 3.96857e-05
3 *1042:D *807:B 7.19234e-06
4 *1042:D *1042:CK 1.40196e-05
*RES
1 *807:Z *1042:D 14.8571 
*END

*D_NET *85 0.00033801
*CONN
*I *1043:D I *D DFF_X1
*I *808:Z O *D MUX2_X1
*CAP
1 *1043:D 8.59958e-05
2 *808:Z 8.59958e-05
3 *1043:D *759:B 4.52204e-05
4 *1043:D *905:A3 1.52753e-05
5 *1043:D *1099:D 1.67775e-05
6 *1043:D *218:18 2.1307e-05
7 *1043:D *222:14 1.19634e-05
8 *1043:D *232:8 1.4892e-05
9 *1043:D *232:14 4.01504e-05
10 *1043:D *626:14 4.32144e-07
*RES
1 *808:Z *1043:D 31.2857 
*END

*D_NET *86 0.00018729
*CONN
*I *1044:D I *D DFF_X1
*I *809:Z O *D MUX2_X1
*CAP
1 *1044:D 8.21213e-05
2 *809:Z 8.21213e-05
3 *1044:D *962:RN 1.64551e-05
4 *1044:D *184:50 3.88456e-06
5 *1044:D *184:52 0
6 *1036:D *1044:D 2.70833e-06
*RES
1 *809:Z *1044:D 19.4286 
*END

*D_NET *87 0.000408464
*CONN
*I *1045:D I *D DFF_X1
*I *810:Z O *D MUX2_X1
*CAP
1 *1045:D 0.000118927
2 *810:Z 0.000118927
3 *1045:D *810:B 3.33264e-05
4 *1045:D *199:48 4.90744e-05
5 *1045:D *627:55 0
6 *1045:D *628:88 8.82097e-05
*RES
1 *810:Z *1045:D 35.7857 
*END

*D_NET *88 0.00022891
*CONN
*I *1046:D I *D DFF_X1
*I *811:Z O *D MUX2_X1
*CAP
1 *1046:D 6.32544e-05
2 *811:Z 6.32544e-05
3 *1046:D *811:A 1.61002e-06
4 *1046:D *818:A 0
5 *1046:D *909:A2 4.29819e-05
6 *1046:D *933:A2 1.91256e-06
7 *1046:D *270:18 0
8 *1046:D *632:70 3.35796e-05
9 *1038:D *1046:D 2.23174e-05
*RES
1 *811:Z *1046:D 28.25 
*END

*D_NET *89 0.000134459
*CONN
*I *1047:D I *D DFF_X1
*I *812:Z O *D MUX2_X1
*CAP
1 *1047:D 4.57294e-05
2 *812:Z 4.57294e-05
3 *1047:D *812:A 0
4 *1047:D *303:12 5.52692e-06
5 *1023:D *1047:D 3.74737e-05
*RES
1 *812:Z *1047:D 15.3571 
*END

*D_NET *90 0.000306573
*CONN
*I *1048:D I *D DFF_X1
*I *686:Z O *D MUX2_X1
*CAP
1 *1048:D 8.83741e-05
2 *686:Z 8.83741e-05
3 *1048:D *686:A 4.77419e-05
4 *1048:D *686:B 0
5 *1048:D *181:90 2.19343e-06
6 *1048:D *181:109 4.87936e-05
7 *1048:D *202:48 0
8 *1048:D *234:47 1.2452e-05
9 *1048:D *623:10 1.78004e-05
10 *1048:D *647:19 0
11 *1048:D *647:23 8.43215e-07
*RES
1 *686:Z *1048:D 32.1786 
*END

*D_NET *91 0.000254551
*CONN
*I *1049:D I *D DFF_X1
*I *799:Z O *D MUX2_X1
*CAP
1 *1049:D 8.10259e-05
2 *799:Z 8.10259e-05
3 *1049:D *786:S 9.01846e-07
4 *1049:D *893:B1 3.34038e-05
5 *1049:D *203:35 1.52466e-05
6 *1049:D *234:51 4.29467e-05
*RES
1 *799:Z *1049:D 19.9286 
*END

*D_NET *92 0.000348887
*CONN
*I *1050:D I *D DFF_X1
*I *800:Z O *D MUX2_X1
*CAP
1 *1050:D 7.89491e-05
2 *800:Z 7.89491e-05
3 *1050:D *890:A1 3.28714e-05
4 *1050:D *890:A4 6.48738e-06
5 *1050:D *190:165 0.000117112
6 *1050:D *255:14 3.21555e-05
7 *1050:D *601:65 2.36192e-06
*RES
1 *800:Z *1050:D 30.2857 
*END

*D_NET *93 0.000213604
*CONN
*I *1051:D I *D DFF_X1
*I *801:Z O *D MUX2_X1
*CAP
1 *1051:D 9.36731e-05
2 *801:Z 9.36731e-05
3 *1051:D *801:A 0
4 *1051:D *801:B 9.05228e-06
5 *1051:D *801:S 6.40308e-06
6 *1051:D *898:A1 0
7 *1051:D *1051:CK 6.38328e-07
8 *1051:D *226:18 1.0164e-05
*RES
1 *801:Z *1051:D 30.1071 
*END

*D_NET *94 0.000247258
*CONN
*I *1052:D I *D DFF_X1
*I *802:Z O *D MUX2_X1
*CAP
1 *1052:D 5.84083e-05
2 *802:Z 5.84083e-05
3 *1052:D *802:A 2.68269e-05
4 *1052:D *802:B 1.86809e-06
5 *1052:D *911:A1 8.90245e-06
6 *1052:D *222:18 1.33202e-05
7 *1052:D *232:16 7.95234e-05
*RES
1 *802:Z *1052:D 28.0714 
*END

*D_NET *95 0.000352923
*CONN
*I *1053:D I *D DFF_X1
*I *803:Z O *D MUX2_X1
*CAP
1 *1053:D 8.40177e-05
2 *803:Z 8.40177e-05
3 *1053:D *803:A 1.74934e-05
4 *1053:D *919:B2 6.25497e-06
5 *1053:D *1053:CK 1.0303e-05
6 *1053:D *1101:CK 1.8615e-05
7 *1053:D *225:26 4.80114e-06
8 *1053:D *226:106 1.80284e-05
9 *1053:D *581:10 1.62713e-05
10 *1053:D *604:59 3.93734e-05
11 *1053:D *645:116 5.37467e-05
*RES
1 *803:Z *1053:D 31.8214 
*END

*D_NET *96 0.000341135
*CONN
*I *1054:D I *D DFF_X1
*I *804:Z O *D MUX2_X1
*CAP
1 *1054:D 0.000122897
2 *804:Z 0.000122897
3 *1054:D *867:B 0
4 *1054:D *226:16 1.82823e-05
5 *1054:D *226:18 3.24354e-05
6 *1054:D *605:25 0
7 *1054:D *616:30 3.85541e-05
8 *982:D *1054:D 6.06867e-06
*RES
1 *804:Z *1054:D 35.5357 
*END

*D_NET *97 0.000194038
*CONN
*I *1055:D I *D DFF_X1
*I *805:Z O *D MUX2_X1
*CAP
1 *1055:D 6.41805e-05
2 *805:Z 6.41805e-05
3 *1055:D *847:S 1.43979e-05
4 *1055:D *616:68 4.24402e-05
5 *1055:D *625:43 6.44191e-06
6 *1055:D *644:8 0
7 *1055:D *644:15 2.39679e-06
*RES
1 *805:Z *1055:D 27.6429 
*END

*D_NET *98 0.000192048
*CONN
*I *1056:D I *D DFF_X1
*I *740:Z O *D MUX2_X1
*CAP
1 *1056:D 3.61605e-05
2 *740:Z 3.61605e-05
3 *1056:D *707:A4 0
4 *1056:D *203:29 3.89107e-05
5 *1056:D *234:47 3.83757e-05
6 *1056:D *607:118 4.24402e-05
*RES
1 *740:Z *1056:D 26.0357 
*END

*D_NET *99 0.000323124
*CONN
*I *1057:D I *D DFF_X1
*I *792:Z O *D MUX2_X1
*CAP
1 *1057:D 0.000102334
2 *792:Z 0.000102334
3 *1057:D *884:A3 1.72807e-06
4 *1057:D *978:CK 1.32348e-05
5 *1057:D *1057:CK 5.46453e-05
6 *1057:D *1089:CK 7.72537e-06
7 *1057:D *199:33 0
8 *1057:D *209:31 7.19036e-06
9 *1057:D *465:12 5.68655e-06
10 *1057:D *497:14 2.8246e-05
11 *1057:D *600:170 0
12 *1057:D *649:44 0
*RES
1 *792:Z *1057:D 31.8571 
*END

*D_NET *100 8.80714e-05
*CONN
*I *1058:D I *D DFF_X1
*I *793:Z O *D MUX2_X1
*CAP
1 *1058:D 4.04413e-05
2 *793:Z 4.04413e-05
3 *1058:D *793:A 4.79202e-06
4 *1058:D *888:B2 2.39679e-06
5 *1058:D *894:B2 0
6 *1058:D *190:165 0
*RES
1 *793:Z *1058:D 14.1786 
*END

*D_NET *101 8.25244e-05
*CONN
*I *1059:D I *D DFF_X1
*I *794:Z O *D MUX2_X1
*CAP
1 *1059:D 3.30887e-05
2 *794:Z 3.30887e-05
3 *1059:D *1059:CK 6.38328e-07
4 *1059:D *602:21 1.57087e-05
5 *1059:D *634:22 0
*RES
1 *794:Z *1059:D 13.75 
*END

*D_NET *102 0.000221404
*CONN
*I *1060:D I *D DFF_X1
*I *795:Z O *D MUX2_X1
*CAP
1 *1060:D 6.25171e-05
2 *795:Z 6.25171e-05
3 *1060:D *795:A 3.33429e-05
4 *1060:D *795:B 1.16229e-06
5 *1060:D *795:S 2.16046e-05
6 *1060:D *636:26 0
7 *1060:D *636:33 6.38328e-07
8 *988:D *1060:D 3.96215e-05
*RES
1 *795:Z *1060:D 28.0714 
*END

*D_NET *103 0.000222981
*CONN
*I *1061:D I *D DFF_X1
*I *796:Z O *D MUX2_X1
*CAP
1 *1061:D 8.52134e-05
2 *796:Z 8.52134e-05
3 *1061:D *768:S 2.82896e-05
4 *1061:D *796:A 1.23191e-05
5 *1061:D *227:106 1.34107e-07
6 *1061:D *607:9 1.18109e-05
*RES
1 *796:Z *1061:D 29.4286 
*END

*D_NET *104 0.000128297
*CONN
*I *1062:D I *D DFF_X1
*I *797:Z O *D MUX2_X1
*CAP
1 *1062:D 4.76784e-05
2 *797:Z 4.76784e-05
3 *1062:D *797:A 1.93513e-05
4 *1062:D *853:S 1.4495e-06
5 *1062:D *635:39 1.21392e-05
*RES
1 *797:Z *1062:D 15.7857 
*END

*D_NET *105 9.12303e-05
*CONN
*I *1063:D I *D DFF_X1
*I *798:Z O *D MUX2_X1
*CAP
1 *1063:D 3.70307e-05
2 *798:Z 3.70307e-05
3 *1063:D *826:B 3.88456e-06
4 *1063:D *1063:CK 6.38328e-07
5 *1063:D *606:191 1.26461e-05
*RES
1 *798:Z *1063:D 14.1786 
*END

*D_NET *106 0.00018478
*CONN
*I *1064:D I *D DFF_X1
*I *742:Z O *D MUX2_X1
*CAP
1 *1064:D 6.71783e-05
2 *742:Z 6.71783e-05
3 *1064:D *742:A 2.5073e-06
4 *1064:D *742:B 1.1632e-05
5 *1064:D *881:A2 3.1358e-05
6 *1064:D *1028:CK 0
7 *1064:D *1064:CK 1.40154e-06
8 *1064:D *627:16 3.52448e-06
*RES
1 *742:Z *1064:D 27.1429 
*END

*D_NET *107 0.000197003
*CONN
*I *1065:D I *D DFF_X1
*I *785:Z O *D MUX2_X1
*CAP
1 *1065:D 2.3428e-05
2 *785:Z 2.3428e-05
3 *1065:D *785:A 9.41709e-05
4 *1065:D *875:A2 0
5 *1065:D *600:185 5.59765e-05
*RES
1 *785:Z *1065:D 25 
*END

*D_NET *108 0.0001074
*CONN
*I *1066:D I *D DFF_X1
*I *786:Z O *D MUX2_X1
*CAP
1 *1066:D 4.93876e-05
2 *786:Z 4.93876e-05
3 *1066:D *786:A 8.62472e-06
4 *1018:D *1066:D 0
*RES
1 *786:Z *1066:D 15.3571 
*END

*D_NET *109 0.000219639
*CONN
*I *1067:D I *D DFF_X1
*I *787:Z O *D MUX2_X1
*CAP
1 *1067:D 8.0948e-05
2 *787:Z 8.0948e-05
3 *1067:D *787:A 7.36912e-06
4 *1067:D *898:C1 1.32348e-05
5 *1067:D *227:30 2.97112e-05
6 *1067:D *618:16 7.4277e-06
*RES
1 *787:Z *1067:D 30.2857 
*END

*D_NET *110 0.000109829
*CONN
*I *1068:D I *D DFF_X1
*I *788:Z O *D MUX2_X1
*CAP
1 *1068:D 5.20374e-05
2 *788:Z 5.20374e-05
3 *1068:D *234:47 0
4 *1068:D *641:23 5.75407e-06
*RES
1 *788:Z *1068:D 15.3571 
*END

*D_NET *111 0.000191903
*CONN
*I *1069:D I *D DFF_X1
*I *789:Z O *D MUX2_X1
*CAP
1 *1069:D 7.59853e-05
2 *789:Z 7.59853e-05
3 *1069:D *768:B 8.43215e-07
4 *1069:D *784:S 3.90891e-05
5 *1069:D *927:A1 0
*RES
1 *789:Z *1069:D 18.75 
*END

*D_NET *112 0.000271106
*CONN
*I *1070:D I *D DFF_X1
*I *790:Z O *D MUX2_X1
*CAP
1 *1070:D 6.1218e-05
2 *790:Z 6.1218e-05
3 *1070:D *898:C2 9.28375e-05
4 *1070:D *228:18 1.94292e-05
5 *1070:D *616:37 3.64037e-05
6 *1070:D *634:54 0
*RES
1 *790:Z *1070:D 28.75 
*END

*D_NET *113 0.000177775
*CONN
*I *1071:D I *D DFF_X1
*I *791:Z O *D MUX2_X1
*CAP
1 *1071:D 5.84655e-05
2 *791:Z 5.84655e-05
3 *1071:D *791:A 1.46266e-05
4 *1071:D *791:S 3.90891e-05
5 *1071:D *606:36 7.12794e-06
6 *1071:D *644:28 0
7 *1071:D *644:30 0
*RES
1 *791:Z *1071:D 27.3929 
*END

*D_NET *114 0.000160371
*CONN
*I *1072:D I *D DFF_X1
*I *756:Z O *D MUX2_X1
*CAP
1 *1072:D 5.47817e-05
2 *756:Z 5.47817e-05
3 *1072:D *710:A1 2.43548e-06
4 *1072:D *756:A 1.1025e-05
5 *1072:D *227:79 3.49085e-06
6 *1072:D *480:10 3.82563e-06
7 *1072:D *607:69 7.00661e-06
8 *1072:D *607:80 6.21255e-06
9 *1072:D *616:66 2.79164e-06
10 *1072:D *628:71 1.40196e-05
*RES
1 *756:Z *1072:D 26.8929 
*END

*D_NET *115 0.000145077
*CONN
*I *1073:D I *D DFF_X1
*I *778:Z O *D MUX2_X1
*CAP
1 *1073:D 3.97654e-05
2 *778:Z 3.97654e-05
3 *1073:D *778:A 6.4556e-06
4 *1073:D *779:S 2.86475e-06
5 *1073:D *188:106 9.22998e-06
6 *1073:D *600:13 3.14317e-05
7 *1073:D *625:41 1.55645e-05
*RES
1 *778:Z *1073:D 25.5357 
*END

*D_NET *116 9.88759e-05
*CONN
*I *1074:D I *D DFF_X1
*I *779:Z O *D MUX2_X1
*CAP
1 *1074:D 4.42472e-05
2 *779:Z 4.42472e-05
3 *1074:D rd_data[4] 0
4 *1074:D *842:B 7.62806e-06
5 *1074:D *1074:CK 2.75346e-06
*RES
1 *779:Z *1074:D 14.6786 
*END

*D_NET *117 0.000398402
*CONN
*I *1075:D I *D DFF_X1
*I *780:Z O *D MUX2_X1
*CAP
1 *1075:D 7.20534e-05
2 *780:Z 7.20534e-05
3 *1075:D *222:14 0.000154734
4 *1075:D *224:29 3.69387e-05
5 *1075:D *232:14 5.63604e-05
6 *1075:D *633:46 6.26151e-06
*RES
1 *780:Z *1075:D 32.1429 
*END

*D_NET *118 0.0002031
*CONN
*I *1076:D I *D DFF_X1
*I *781:Z O *D MUX2_X1
*CAP
1 *1076:D 5.03155e-05
2 *781:Z 5.03155e-05
3 *1076:D *781:A 3.0943e-05
4 *1076:D *907:B2 1.01463e-05
5 *1076:D *225:80 4.08736e-05
6 *1076:D *225:97 3.80762e-06
7 *1076:D *636:26 1.66988e-05
*RES
1 *781:Z *1076:D 36.7143 
*END

*D_NET *119 0.000243681
*CONN
*I *1077:D I *D DFF_X1
*I *782:Z O *D MUX2_X1
*CAP
1 *1077:D 9.48725e-05
2 *782:Z 9.48725e-05
3 *1077:D *782:A 1.55581e-05
4 *1077:D *1080:D 0
5 *1077:D *225:101 0
6 *1077:D *227:106 0
7 *1077:D *627:71 3.83783e-05
*RES
1 *782:Z *1077:D 30.7857 
*END

*D_NET *120 0.000501749
*CONN
*I *1078:D I *D DFF_X1
*I *783:Z O *D MUX2_X1
*CAP
1 *1078:D 0.000137309
2 *783:Z 0.000137309
3 *1078:D *783:A 1.1812e-05
4 *1078:D *783:B 1.60843e-05
5 *1078:D *832:A 7.83768e-05
6 *1078:D *196:28 1.75331e-05
7 *1078:D *605:96 2.44581e-05
8 *1078:D *633:46 2.99481e-05
9 *1078:D *637:25 2.89806e-05
10 *1078:D *637:27 2.87248e-06
11 *1022:D *1078:D 1.70661e-05
*RES
1 *783:Z *1078:D 38.3214 
*END

*D_NET *121 0.000359441
*CONN
*I *1079:D I *D DFF_X1
*I *784:Z O *D MUX2_X1
*CAP
1 *1079:D 0.000152647
2 *784:Z 0.000152647
3 *1079:D *784:B 0
4 *1079:D *1087:D 8.62472e-06
5 *1079:D *1087:CK 4.55213e-05
6 *1079:D *644:30 0
*RES
1 *784:Z *1079:D 36.2143 
*END

*D_NET *122 0.000476069
*CONN
*I *1080:D I *D DFF_X1
*I *738:Z O *D MUX2_X1
*CAP
1 *1080:D 0.000121431
2 *738:Z 0.000121431
3 *1080:D *732:B 2.14856e-06
4 *1080:D *1096:D 8.43429e-06
5 *1080:D *642:14 0.000142531
6 *1080:D *642:18 8.00929e-05
7 *1077:D *1080:D 0
*RES
1 *738:Z *1080:D 35.25 
*END

*D_NET *123 8.86864e-05
*CONN
*I *1081:D I *D DFF_X1
*I *771:Z O *D MUX2_X1
*CAP
1 *1081:D 2.10047e-05
2 *771:Z 2.10047e-05
3 *1081:D *883:A3 1.32732e-05
4 *1081:D *883:A4 3.34038e-05
*RES
1 *771:Z *1081:D 13.25 
*END

*D_NET *124 0.000205684
*CONN
*I *1082:D I *D DFF_X1
*I *772:Z O *D MUX2_X1
*CAP
1 *1082:D 6.63514e-05
2 *772:Z 6.63514e-05
3 *1082:D *757:S 5.01029e-05
4 *1082:D *772:B 1.21774e-06
5 *1082:D *1090:D 0
6 *1082:D *232:138 0
7 *1082:D *627:43 2.16603e-05
8 *1082:D *648:39 0
*RES
1 *772:Z *1082:D 28.7143 
*END

*D_NET *125 0.000474488
*CONN
*I *1083:D I *D DFF_X1
*I *773:Z O *D MUX2_X1
*CAP
1 *1083:D 0.00016681
2 *773:Z 0.00016681
3 *1083:D *773:A 1.96555e-05
4 *1083:D *899:B2 2.92045e-05
5 *1083:D *902:A2 3.84222e-05
6 *1083:D *1091:CK 0
7 *1083:D *602:58 1.08208e-05
8 *1083:D *602:84 3.21546e-06
9 *1083:D *618:37 3.89107e-05
10 *1083:D *634:12 0
11 *1083:D *634:20 6.38328e-07
*RES
1 *773:Z *1083:D 40.2857 
*END

*D_NET *126 0.000493052
*CONN
*I *1084:D I *D DFF_X1
*I *774:Z O *D MUX2_X1
*CAP
1 *1084:D 0.000226123
2 *774:Z 0.000226123
3 *1084:D *767:B 0
4 *1084:D *988:CK 0
5 *1084:D *1092:D 7.72792e-06
6 *1084:D *1092:CK 9.77662e-06
7 *1084:D *232:38 2.58958e-06
8 *1084:D *528:12 1.03226e-06
9 *1084:D *603:21 7.11905e-07
10 *1084:D *603:181 9.15616e-06
11 *1084:D *603:194 1.62705e-06
12 *1084:D *618:58 5.43035e-06
13 *1084:D *636:44 2.75346e-06
*RES
1 *774:Z *1084:D 42.3214 
*END

*D_NET *127 9.89735e-05
*CONN
*I *1085:D I *D DFF_X1
*I *775:Z O *D MUX2_X1
*CAP
1 *1085:D 3.71664e-05
2 *775:Z 3.71664e-05
3 *1085:D *775:A 0
4 *1085:D *775:S 0
5 *1085:D *953:A3 2.46406e-05
*RES
1 *775:Z *1085:D 14.1786 
*END

*D_NET *128 0.000585297
*CONN
*I *1086:D I *D DFF_X1
*I *776:Z O *D MUX2_X1
*CAP
1 *1086:D 0.000211562
2 *776:Z 0.000211562
3 *1086:D *769:A 7.19036e-06
4 *1086:D *769:B 1.7302e-05
5 *1086:D *769:S 5.52959e-06
6 *1086:D *829:A 0
7 *1086:D *1003:CK 9.57985e-06
8 *1086:D *1019:CK 0
9 *1086:D *1094:D 3.35822e-05
10 *1086:D *208:36 2.18005e-05
11 *1086:D *211:18 0
12 *1086:D *211:44 0
13 *1086:D *616:45 7.67361e-06
14 *1086:D *637:41 5.95143e-05
*RES
1 *776:Z *1086:D 44.7143 
*END

*D_NET *129 0.00019708
*CONN
*I *1087:D I *D DFF_X1
*I *777:Z O *D MUX2_X1
*CAP
1 *1087:D 9.16743e-05
2 *777:Z 9.16743e-05
3 *1087:D *1087:CK 5.10662e-06
4 *1087:D *644:47 0
5 *1079:D *1087:D 8.62472e-06
*RES
1 *777:Z *1087:D 19.6786 
*END

*D_NET *130 0.00021041
*CONN
*I *1088:D I *D DFF_X1
*I *752:Z O *D MUX2_X1
*CAP
1 *1088:D 5.40363e-05
2 *752:Z 5.40363e-05
3 *1088:D *225:97 1.44005e-05
4 *1088:D *232:50 9.90355e-06
5 *1088:D *603:5 3.05921e-05
6 *1088:D *607:41 9.77674e-06
7 *1088:D *618:58 3.76649e-05
*RES
1 *752:Z *1088:D 28.0714 
*END

*D_NET *131 0.000224784
*CONN
*I *1089:D I *D DFF_X1
*I *764:Z O *D MUX2_X1
*CAP
1 *1089:D 9.14626e-05
2 *764:Z 9.14626e-05
3 *1089:D *1089:CK 7.34989e-06
4 *1089:D *209:31 0
5 *1089:D *627:35 3.45089e-05
*RES
1 *764:Z *1089:D 20.5357 
*END

*D_NET *132 0.000184414
*CONN
*I *1090:D I *D DFF_X1
*I *765:Z O *D MUX2_X1
*CAP
1 *1090:D 8.93439e-05
2 *765:Z 8.93439e-05
3 *1090:D *772:B 0
4 *1090:D *230:35 2.97287e-06
5 *1090:D *648:39 2.75346e-06
6 *1082:D *1090:D 0
*RES
1 *765:Z *1090:D 17.8214 
*END

*D_NET *133 0.00015376
*CONN
*I *1091:D I *D DFF_X1
*I *766:Z O *D MUX2_X1
*CAP
1 *1091:D 7.56818e-05
2 *766:Z 7.56818e-05
3 *1091:D *1091:CK 2.39679e-06
4 *1091:D *499:12 0
5 *1091:D *618:37 0
*RES
1 *766:Z *1091:D 17.8214 
*END

*D_NET *134 0.000411394
*CONN
*I *1092:D I *D DFF_X1
*I *767:Z O *D MUX2_X1
*CAP
1 *1092:D 0.000155758
2 *767:Z 0.000155758
3 *1092:D *767:B 7.92487e-05
4 *1092:D *844:B 3.47058e-06
5 *1092:D *851:A 0
6 *1092:D *851:S 0
7 *1092:D *603:21 6.32461e-06
8 *1092:D *603:194 3.10551e-06
9 *1084:D *1092:D 7.72792e-06
*RES
1 *767:Z *1092:D 35.25 
*END

*D_NET *135 0.000140955
*CONN
*I *1093:D I *D DFF_X1
*I *768:Z O *D MUX2_X1
*CAP
1 *1093:D 4.22448e-05
2 *768:Z 4.22448e-05
3 *1093:D *768:A 1.78436e-06
4 *1093:D *768:B 6.21255e-06
5 *1093:D *232:67 1.28987e-05
6 *1093:D *644:66 3.35822e-05
7 *1093:D *644:79 1.9871e-06
*RES
1 *768:Z *1093:D 25.5357 
*END

*D_NET *136 0.000215512
*CONN
*I *1094:D I *D DFF_X1
*I *769:Z O *D MUX2_X1
*CAP
1 *1094:D 5.11061e-05
2 *769:Z 5.11061e-05
3 *1094:D *1003:CK 1.10223e-05
4 *1094:D *1019:CK 4.24673e-07
5 *1094:D *225:80 6.60034e-05
6 *1094:D *603:83 0
7 *1094:D *616:45 1.18589e-06
8 *1094:D *637:41 1.08112e-06
9 *1086:D *1094:D 3.35822e-05
*RES
1 *769:Z *1094:D 26.8929 
*END

*D_NET *137 0.000212963
*CONN
*I *1095:D I *D DFF_X1
*I *770:Z O *D MUX2_X1
*CAP
1 *1095:D 7.41833e-05
2 *770:Z 7.41833e-05
3 *1095:D *763:S 2.07643e-05
4 *1095:D *770:B 6.91187e-06
5 *1095:D *840:A 6.82202e-07
6 *1095:D *951:A1 2.26406e-05
7 *1095:D *645:29 3.23723e-07
8 *1015:D *1095:D 1.32732e-05
*RES
1 *770:Z *1095:D 19.6786 
*END

*D_NET *138 0.000245345
*CONN
*I *1096:D I *D DFF_X1
*I *732:Z O *D MUX2_X1
*CAP
1 *1096:D 9.3252e-05
2 *732:Z 9.3252e-05
3 *1096:D *732:B 1.05461e-05
4 *1096:D *232:67 3.98608e-05
5 *1096:D *607:20 0
6 *1080:D *1096:D 8.43429e-06
*RES
1 *732:Z *1096:D 21.2857 
*END

*D_NET *139 0.000195889
*CONN
*I *1097:D I *D DFF_X1
*I *757:Z O *D MUX2_X1
*CAP
1 *1097:D 8.56413e-05
2 *757:Z 8.56413e-05
3 *1097:D *1073:CK 1.32348e-05
4 *1097:D *1074:CK 0
5 *1097:D *600:19 3.84365e-06
6 *1097:D *648:29 7.52784e-06
*RES
1 *757:Z *1097:D 19.8929 
*END

*D_NET *140 0.000114162
*CONN
*I *1098:D I *D DFF_X1
*I *758:Z O *D MUX2_X1
*CAP
1 *1098:D 3.2958e-05
2 *758:Z 3.2958e-05
3 *1098:D *758:B 3.96215e-05
4 *1098:D *184:104 8.62472e-06
*RES
1 *758:Z *1098:D 14.6786 
*END

*D_NET *141 0.000490735
*CONN
*I *1099:D I *D DFF_X1
*I *759:Z O *D MUX2_X1
*CAP
1 *1099:D 0.000132646
2 *759:Z 0.000132646
3 *1099:D *759:A 3.08967e-05
4 *1099:D *759:B 5.31851e-05
5 *1099:D *904:A1 7.19036e-06
6 *1099:D *1043:CK 8.12606e-05
7 *1099:D *218:18 1.52083e-06
8 *1099:D *225:63 2.79474e-05
9 *1099:D *602:166 1.57425e-06
10 *1099:D *626:14 4.7556e-06
11 *1099:D *628:10 3.34529e-07
12 *1043:D *1099:D 1.67775e-05
*RES
1 *759:Z *1099:D 36.5357 
*END

*D_NET *142 8.85728e-05
*CONN
*I *1100:D I *D DFF_X1
*I *760:Z O *D MUX2_X1
*CAP
1 *1100:D 3.72766e-05
2 *760:Z 3.72766e-05
3 *1100:D *760:S 0
4 *1100:D *962:RN 1.40196e-05
*RES
1 *760:Z *1100:D 14.1786 
*END

*D_NET *143 0.000275708
*CONN
*I *1101:D I *D DFF_X1
*I *761:Z O *D MUX2_X1
*CAP
1 *1101:D 7.74565e-05
2 *761:Z 7.74565e-05
3 *1101:D *757:S 0
4 *1101:D *919:A1 1.64277e-05
5 *1101:D *1101:CK 8.43215e-07
6 *1101:D *509:10 1.12768e-05
7 *1101:D *600:29 5.96926e-05
8 *1101:D *604:59 1.06785e-05
9 *1101:D *604:63 1.21774e-06
10 *1101:D *627:43 2.0659e-05
*RES
1 *761:Z *1101:D 30.0714 
*END

*D_NET *144 0.00018444
*CONN
*I *1102:D I *D DFF_X1
*I *762:Z O *D MUX2_X1
*CAP
1 *1102:D 7.45871e-05
2 *762:Z 7.45871e-05
3 *1102:D *939:A1 0
4 *1102:D *939:B2 2.80752e-05
5 *1102:D *940:A4 0
6 *1102:D *526:12 7.19036e-06
*RES
1 *762:Z *1102:D 18.25 
*END

*D_NET *145 0.000194634
*CONN
*I *1103:D I *D DFF_X1
*I *763:Z O *D MUX2_X1
*CAP
1 *1103:D 6.14294e-05
2 *763:Z 6.14294e-05
3 *1103:D *763:A 8.93174e-06
4 *1103:D *819:S 3.4231e-06
5 *1103:D *952:A4 1.45851e-05
6 *1103:D *567:8 2.39679e-06
7 *1103:D *606:166 4.24381e-05
*RES
1 *763:Z *1103:D 27.3929 
*END

*D_NET *146 0.000235735
*CONN
*I *1104:D I *D DFF_X1
*I *734:Z O *D MUX2_X1
*CAP
1 *1104:D 6.46452e-05
2 *734:Z 6.46452e-05
3 *1104:D *734:B 1.1025e-05
4 *1104:D *1104:CK 4.99246e-05
5 *1104:D *184:73 8.62655e-06
6 *1104:D *647:101 3.68681e-05
7 *962:D *1104:D 0
*RES
1 *734:Z *1104:D 19.1786 
*END

*D_NET *147 0.0010843
*CONN
*P empty O
*I *689:A2 I *D OR2_X1
*I *674:ZN O *D AND2_X1
*CAP
1 empty 0.00026921
2 *689:A2 6.74514e-05
3 *674:ZN 1.7799e-05
4 *147:6 0.000354461
5 empty *151:10 4.17885e-06
6 empty *593:9 0.000299413
7 empty *599:11 2.37916e-06
8 *689:A2 *688:A 1.87392e-05
9 *689:A2 *688:B1 6.40668e-06
10 *689:A2 *689:A1 1.76728e-05
11 *689:A2 *961:RN 0
12 *689:A2 *593:9 4.87096e-06
13 *147:6 *688:B1 6.71316e-06
14 *147:6 *961:RN 4.55949e-09
15 *147:6 *593:9 1.2604e-05
16 *147:6 *599:11 2.39679e-06
*RES
1 *674:ZN *147:6 7.25 
2 *147:6 *689:A2 13.6071 
3 *147:6 empty 45.6429 
*END

*D_NET *148 0.000866843
*CONN
*P full O
*I *675:ZN O *D AND2_X1
*CAP
1 full 1.62891e-05
2 *675:ZN 0.000416175
3 *148:8 0.000432464
4 full *608:7 1.91498e-06
5 *148:8 *608:7 0
*RES
1 *675:ZN *148:8 49.5179 
2 *148:8 full 2.55357 
*END

*D_NET *149 0.000106684
*CONN
*I *677:A I *D AOI21_X1
*I *650:ZN O *D INV_X1
*CAP
1 *677:A 4.49345e-05
2 *650:ZN 4.49345e-05
3 *677:A *971:CK 4.79202e-06
4 *677:A *170:14 2.39679e-06
5 *677:A *170:24 7.19036e-06
6 *677:A *174:10 2.43548e-06
*RES
1 *650:ZN *677:A 14.6786 
*END

*D_NET *150 0.0019523
*CONN
*I *747:A1 I *D NOR4_X2
*I *755:A1 I *D NOR3_X1
*I *745:A1 I *D NOR3_X1
*I *679:A1 I *D NOR2_X1
*I *733:A1 I *D NOR3_X1
*I *651:ZN O *D INV_X1
*CAP
1 *747:A1 6.59509e-06
2 *755:A1 6.11915e-05
3 *745:A1 7.88479e-05
4 *679:A1 1.42684e-05
5 *733:A1 8.46051e-05
6 *651:ZN 0.000171148
7 *150:41 0.000152343
8 *150:39 5.82158e-05
9 *150:8 0.000230705
10 *679:A1 *670:A 0
11 *679:A1 *176:8 2.94455e-05
12 *679:A1 *610:14 1.52083e-06
13 *679:A1 *610:16 1.07633e-05
14 *679:A1 *610:20 4.43868e-06
15 *733:A1 *680:A2 2.31472e-05
16 *733:A1 *680:A3 2.14028e-05
17 *733:A1 *684:A1 3.64508e-05
18 *733:A1 *728:A2 5.69408e-05
19 *733:A1 *730:A2 5.54348e-05
20 *733:A1 *174:20 3.24775e-06
21 *733:A1 *176:8 1.34524e-05
22 *733:A1 *217:23 9.07104e-05
23 *733:A1 *218:60 8.43215e-07
24 *733:A1 *221:18 8.80285e-06
25 *733:A1 *610:20 0.000143325
26 *745:A1 *745:A2 1.25215e-05
27 *745:A1 *745:A3 1.05574e-05
28 *745:A1 *1203:A 3.30047e-06
29 *745:A1 *177:27 3.83453e-06
30 *745:A1 *180:23 8.81926e-05
31 *745:A1 *205:16 5.41015e-05
32 *745:A1 *231:14 1.10481e-05
33 *745:A1 *611:70 1.06702e-05
34 *747:A1 *747:A2 1.21774e-06
35 *747:A1 *622:38 1.80259e-05
36 *755:A1 *745:A3 1.39634e-05
37 *755:A1 *747:A2 1.18589e-06
38 *755:A1 *755:A2 7.72537e-06
39 *755:A1 *217:55 1.02284e-05
40 *755:A1 *234:14 7.72537e-06
41 *755:A1 *611:66 1.50994e-05
42 *150:8 *669:A 3.21622e-05
43 *150:8 *670:B 0
44 *150:8 *671:A3 1.32678e-05
45 *150:8 *679:A2 2.39679e-06
46 *150:8 *206:14 8.29692e-06
47 *150:8 *206:40 1.76006e-06
48 *150:8 *599:110 6.54588e-06
49 *150:8 *599:131 0
50 *150:39 *669:A 0
51 *150:39 *747:A4 4.85259e-07
52 *150:39 *205:16 0.000103693
53 *150:39 *230:31 2.42688e-05
54 *150:39 *599:104 8.727e-07
55 *150:41 *205:16 6.86795e-05
56 *150:41 *230:8 4.37715e-05
57 *150:41 *230:31 1.72405e-05
58 *150:41 *611:70 1.61249e-06
*RES
1 *651:ZN *150:8 23.75 
2 *150:8 *733:A1 26.6786 
3 *150:8 *679:A1 12.2857 
4 *651:ZN *150:39 15.6786 
5 *150:39 *150:41 3.64286 
6 *150:41 *745:A1 21.7143 
7 *150:41 *755:A1 17.25 
8 *150:39 *747:A1 11.75 
*END

*D_NET *151 0.000239119
*CONN
*I *688:A I *D AOI21_X1
*I *689:A1 I *D OR2_X1
*I *652:ZN O *D INV_X1
*CAP
1 *688:A 9.42682e-06
2 *689:A1 3.13977e-05
3 *652:ZN 3.20953e-05
4 *151:10 7.29198e-05
5 *688:A *688:B1 2.75346e-06
6 *688:A *183:10 2.43548e-06
7 *689:A1 *688:B1 2.37093e-06
8 *689:A1 *183:10 4.51285e-05
9 *151:10 *184:8 0
10 empty *151:10 4.17885e-06
11 *689:A2 *688:A 1.87392e-05
12 *689:A2 *689:A1 1.76728e-05
*RES
1 *652:ZN *151:10 17.9643 
2 *151:10 *689:A1 10.1786 
3 *151:10 *688:A 6.75 
*END

*D_NET *152 0.000129791
*CONN
*I *722:B2 I *D AOI21_X1
*I *653:ZN O *D INV_X1
*CAP
1 *722:B2 4.8168e-05
2 *653:ZN 4.8168e-05
3 *722:B2 *653:A 3.49085e-06
4 *722:B2 *722:A 5.20238e-07
5 *722:B2 *722:B1 2.94435e-05
*RES
1 *653:ZN *722:B2 25 
*END

*D_NET *153 0.000445038
*CONN
*I *684:A1 I *D NAND3_X1
*I *730:A2 I *D NAND4_X1
*I *955:A I *D XNOR2_X1
*I *654:ZN O *D INV_X1
*CAP
1 *684:A1 1.08664e-05
2 *730:A2 1.09647e-05
3 *955:A 0
4 *654:ZN 3.67113e-05
5 *153:15 5.80018e-05
6 *153:6 7.2882e-05
7 *684:A1 *680:A3 1.64909e-05
8 *684:A1 *176:8 2.36944e-05
9 *730:A2 *680:A3 5.46432e-05
10 *153:6 *654:A 2.39679e-06
11 *153:6 *955:B 1.87392e-05
12 *153:6 *972:CK 6.38328e-07
13 *153:6 *599:137 6.38129e-06
14 *153:6 *609:16 0
15 *153:15 *684:A2 6.27479e-06
16 *153:15 *684:A3 2.39679e-06
17 *153:15 *955:B 2.22446e-05
18 *153:15 *221:18 2.09145e-06
19 *153:15 *599:131 8.43215e-07
20 *153:15 *599:137 4.30678e-06
21 *733:A1 *684:A1 3.64508e-05
22 *733:A1 *730:A2 5.54348e-05
23 *972:D *153:6 2.58433e-06
*RES
1 *654:ZN *153:6 9.25 
2 *153:6 *955:A 5 
3 *153:6 *153:15 9.25 
4 *153:15 *730:A2 12.9643 
5 *153:15 *684:A1 12.2857 
*END

*D_NET *154 0.00172717
*CONN
*I *869:A I *D XNOR2_X1
*I *702:A1 I *D NOR4_X2
*I *717:A1 I *D NOR3_X1
*I *718:A1 I *D NOR4_X1
*I *696:A1 I *D NOR4_X2
*I *655:ZN O *D INV_X1
*CAP
1 *869:A 6.44772e-05
2 *702:A1 7.13619e-05
3 *717:A1 0.000115127
4 *718:A1 1.42021e-05
5 *696:A1 0
6 *655:ZN 8.13343e-06
7 *154:27 0.000252522
8 *154:16 0.000131906
9 *154:14 0.000169468
10 *154:8 0.000162004
11 *702:A1 *697:A1 1.8031e-05
12 *702:A1 *697:A3 4.64603e-05
13 *702:A1 *697:A4 2.11458e-06
14 *702:A1 *702:A2 2.34865e-05
15 *702:A1 *702:A4 4.80114e-06
16 *702:A1 *202:27 0
17 *702:A1 *595:116 8.96406e-06
18 *702:A1 *596:22 2.75346e-06
19 *717:A1 *717:A2 4.62835e-05
20 *717:A1 *823:B 0
21 *717:A1 *1177:A 1.26998e-05
22 *717:A1 *203:25 1.26998e-05
23 *717:A1 *208:16 2.88159e-06
24 *717:A1 *212:18 1.03531e-05
25 *717:A1 *595:77 6.38328e-07
26 *717:A1 *628:8 1.10536e-05
27 *717:A1 *631:40 0
28 *718:A1 *208:16 0
29 *718:A1 *595:51 1.21072e-05
30 *718:A1 *595:66 1.21774e-06
31 *718:A1 *595:77 3.65322e-06
32 *718:A1 *596:71 1.07633e-05
33 *869:A *869:B 2.93445e-05
34 *869:A *962:RN 0
35 *869:A *184:50 3.44474e-05
36 *869:A *594:8 8.13181e-06
37 *869:A *596:10 2.74149e-06
38 *154:8 *157:16 1.93661e-06
39 *154:8 *184:50 1.07428e-06
40 *154:14 *159:40 1.74029e-05
41 *154:14 *594:8 2.61627e-06
42 *154:14 *594:14 4.17885e-06
43 *154:14 *595:47 3.19164e-07
44 *154:14 *595:109 1.43238e-06
45 *154:14 *596:10 5.94174e-07
46 *154:14 *596:14 5.61989e-06
47 *154:14 *596:22 3.30857e-05
48 *154:14 *629:10 0.00010583
49 *154:27 *697:A1 5.75004e-07
50 *154:27 *701:A2 0
51 *154:27 *1204:A 0.000126294
52 *154:27 *159:40 3.49085e-06
53 *154:27 *595:51 6.29169e-05
54 *154:27 *595:116 7.72537e-06
55 *154:27 *596:71 2.82756e-05
56 *154:27 *597:18 0
57 *154:27 *629:10 0
58 *154:27 *632:14 2.77413e-05
59 *969:D *154:14 1.23077e-06
*RES
1 *655:ZN *154:8 10.75 
2 *154:8 *154:14 17.3214 
3 *154:14 *154:16 0.928572 
4 *154:16 *696:A1 5 
5 *154:16 *154:27 23.6429 
6 *154:27 *718:A1 12.3571 
7 *154:27 *717:A1 22.9643 
8 *154:14 *702:A1 15.25 
9 *154:8 *869:A 18.5714 
*END

*D_NET *155 0.0013959
*CONN
*I *871:A1 I *D NOR3_X1
*I *692:A1 I *D NOR2_X1
*I *705:A2 I *D NOR4_X2
*I *704:A2 I *D NOR4_X1
*I *714:A2 I *D NOR3_X1
*I *712:A2 I *D NOR4_X2
*I *656:ZN O *D INV_X1
*CAP
1 *871:A1 1.73166e-05
2 *692:A1 3.77386e-05
3 *705:A2 1.46927e-05
4 *704:A2 7.67828e-05
5 *714:A2 9.35425e-05
6 *712:A2 2.30745e-05
7 *656:ZN 5.02239e-06
8 *155:60 9.54406e-05
9 *155:47 8.4959e-05
10 *155:12 0.000170741
11 *155:10 0.000150288
12 *155:8 5.42842e-05
13 *692:A1 *871:A2 0
14 *692:A1 *871:A3 0
15 *692:A1 *872:B 3.28698e-05
16 *692:A1 *639:64 2.74951e-06
17 *704:A2 *656:A 9.25123e-06
18 *704:A2 *704:A3 2.39679e-06
19 *704:A2 *705:A1 0
20 *704:A2 *711:A2 0
21 *704:A2 *594:71 0
22 *704:A2 *596:38 0
23 *704:A2 *597:38 4.12459e-06
24 *705:A2 *656:A 0
25 *705:A2 *595:47 3.94415e-06
26 *712:A2 *668:B 1.90608e-05
27 *712:A2 *670:B 1.20206e-05
28 *712:A2 *906:B 1.11258e-05
29 *714:A2 *668:B 2.40327e-05
30 *714:A2 *711:A2 8.07935e-05
31 *714:A2 *714:A3 2.39679e-06
32 *714:A2 *1179:A 0
33 *714:A2 *205:8 2.81356e-06
34 *714:A2 *594:79 5.91576e-05
35 *714:A2 *594:106 4.13379e-05
36 *714:A2 *597:57 0
37 *714:A2 *630:12 2.14856e-06
38 *871:A1 *871:A2 2.57512e-06
39 *871:A1 *871:A3 1.27666e-06
40 *871:A1 *872:B 2.47526e-05
41 *871:A1 *235:26 7.19036e-06
42 *871:A1 *639:64 5.4018e-07
43 *155:8 *656:A 7.81287e-06
44 *155:10 *906:B 1.43544e-05
45 *155:10 *199:12 0
46 *155:12 *670:B 5.57182e-06
47 *155:12 *906:B 5.42657e-05
48 *155:12 *199:12 0
49 *155:47 *906:B 3.06715e-05
50 *155:47 *199:12 0
51 *155:60 *906:B 4.74992e-05
52 *155:60 *186:10 5.48932e-05
53 *155:60 *594:58 1.03931e-05
*RES
1 *656:ZN *155:8 10.75 
2 *155:8 *155:10 2.28572 
3 *155:10 *155:12 7.71429 
4 *155:12 *712:A2 13.3571 
5 *155:12 *714:A2 24.1071 
6 *155:10 *704:A2 17.75 
7 *155:8 *155:47 4.32143 
8 *155:47 *705:A2 11.75 
9 *155:47 *155:60 12.0357 
10 *155:60 *692:A1 9.35714 
11 *155:60 *871:A1 7.5 
*END

*D_NET *156 0.000835292
*CONN
*I *727:A1 I *D NOR2_X1
*I *683:A1 I *D NAND2_X1
*I *657:ZN O *D INV_X1
*CAP
1 *727:A1 1.30617e-05
2 *683:A1 4.83886e-05
3 *657:ZN 9.1248e-05
4 *156:10 0.000152698
5 *683:A1 *683:A2 1.43238e-06
6 *683:A1 *1166:A 6.0887e-06
7 *683:A1 *179:10 6.47943e-06
8 *683:A1 *218:60 6.40394e-05
9 *683:A1 *265:12 5.56848e-05
10 *683:A1 *638:36 0
11 *727:A1 *179:10 0
12 *727:A1 *205:16 7.19036e-06
13 *727:A1 *638:36 1.74934e-05
14 *156:10 *657:A 3.69565e-05
15 *156:10 *676:A2 1.25215e-05
16 *156:10 *958:B 6.48216e-07
17 *156:10 *158:14 6.42887e-07
18 *156:10 *173:8 0.000102598
19 *156:10 *218:60 0.000101588
20 *156:10 *265:12 0.000105291
21 *975:D *156:10 1.12411e-05
*RES
1 *657:ZN *156:10 25.9286 
2 *156:10 *683:A1 17.1429 
3 *156:10 *727:A1 11.75 
*END

*D_NET *157 0.00171873
*CONN
*I *699:A3 I *D NOR4_X2
*I *702:A3 I *D NOR4_X2
*I *872:A I *D XNOR2_X1
*I *871:A2 I *D NOR3_X1
*I *701:A1 I *D NOR3_X1
*I *704:A3 I *D NOR4_X1
*I *658:ZN O *D INV_X1
*CAP
1 *699:A3 4.35653e-06
2 *702:A3 9.85631e-05
3 *872:A 2.65064e-05
4 *871:A2 6.37556e-05
5 *701:A1 0.000144551
6 *704:A3 1.47365e-05
7 *658:ZN 0.000141534
8 *157:77 0.000133975
9 *157:44 9.0262e-05
10 *157:20 0.000243846
11 *157:16 0.000195037
12 *701:A1 *690:A1 4.43052e-06
13 *701:A1 *701:A2 1.32348e-05
14 *701:A1 *1180:A 2.63261e-05
15 *701:A1 *1181:A 6.38328e-07
16 *701:A1 *1188:A 6.94623e-06
17 *701:A1 *596:32 2.56243e-06
18 *701:A1 *597:18 0
19 *701:A1 *597:22 0
20 *701:A1 *597:32 4.13413e-06
21 *701:A1 *631:40 4.91156e-06
22 *701:A1 *632:14 0
23 *701:A1 *633:240 1.54553e-06
24 *701:A1 *639:28 1.28577e-06
25 *702:A3 *699:A4 0
26 *702:A3 *809:A 3.00272e-05
27 *702:A3 *809:S 1.98111e-05
28 *702:A3 *816:S 0
29 *702:A3 *184:50 3.83453e-06
30 *702:A3 *184:52 1.34578e-05
31 *702:A3 *202:27 0
32 *702:A3 *597:10 0
33 *702:A3 *620:14 0
34 *704:A3 *1180:A 1.26019e-05
35 *704:A3 *597:32 2.36174e-05
36 *704:A3 *597:38 2.39679e-06
37 *704:A3 *639:28 0
38 *871:A2 *705:A3 0
39 *871:A2 *705:A4 5.11574e-06
40 *871:A2 *872:B 2.99857e-05
41 *871:A2 *235:26 1.28085e-05
42 *871:A2 *595:47 0
43 *872:A *872:B 8.6468e-06
44 *872:A *235:26 7.52763e-06
45 *872:A *596:16 0
46 *157:16 *184:50 9.62051e-07
47 *157:16 *202:12 1.16091e-05
48 *157:16 *594:14 3.52949e-05
49 *157:16 *594:45 3.87929e-06
50 *157:16 *597:10 2.88615e-06
51 *157:16 *639:39 2.59296e-05
52 *157:16 *639:50 1.72757e-05
53 *157:20 *202:12 2.78761e-05
54 *157:20 *594:71 6.03486e-06
55 *157:20 *594:73 8.58925e-06
56 *157:20 *597:32 0.000106624
57 *157:20 *639:28 6.50827e-06
58 *157:20 *639:39 3.20052e-05
59 *157:77 *699:A1 7.96507e-06
60 *157:77 *184:50 5.74951e-06
61 *157:77 *594:14 6.15137e-06
62 *692:A1 *871:A2 0
63 *704:A2 *704:A3 2.39679e-06
64 *871:A1 *871:A2 2.57512e-06
65 *969:D *157:16 1.35124e-05
66 *970:D *704:A3 0
67 *154:8 *157:16 1.93661e-06
*RES
1 *658:ZN *157:16 24.7143 
2 *157:16 *157:20 18.1429 
3 *157:20 *704:A3 7.25 
4 *157:20 *701:A1 20.1071 
5 *157:16 *157:44 5 
6 *157:44 *871:A2 13.6429 
7 *157:44 *872:A 8.17857 
8 *658:ZN *157:77 9.17857 
9 *157:77 *702:A3 26.6071 
10 *157:77 *699:A3 5.92857 
*END

*D_NET *158 0.000900368
*CONN
*I *676:A2 I *D NAND2_X1
*I *958:A I *D XNOR2_X1
*I *659:ZN O *D INV_X1
*CAP
1 *676:A2 6.54448e-05
2 *958:A 0
3 *659:ZN 0.00020381
4 *158:14 0.000269255
5 *676:A2 *676:A1 1.21774e-06
6 *676:A2 *173:8 1.97322e-06
7 *676:A2 *217:35 2.55787e-06
8 *676:A2 *218:60 1.59582e-06
9 *158:14 *657:A 5.17368e-06
10 *158:14 *659:A 1.21774e-05
11 *158:14 *751:A1 2.99163e-05
12 *158:14 *905:A2 2.11815e-06
13 *158:14 *905:A3 1.37647e-05
14 *158:14 *958:B 7.19036e-06
15 *158:14 *217:35 7.72537e-06
16 *158:14 *231:14 5.19493e-06
17 *158:14 *555:10 2.11287e-05
18 *158:14 *618:12 0.000204909
19 *158:14 *629:10 6.21536e-06
20 *158:14 *638:25 1.60494e-06
21 *158:14 *638:36 1.04603e-05
22 *975:D *158:14 1.37707e-05
23 *156:10 *676:A2 1.25215e-05
24 *156:10 *158:14 6.42887e-07
*RES
1 *659:ZN *158:14 41.2857 
2 *158:14 *958:A 5 
3 *158:14 *676:A2 11.5357 
*END

*D_NET *159 0.00106813
*CONN
*I *873:A I *D XNOR2_X1
*I *697:A4 I *D NOR4_X2
*I *696:A4 I *D NOR4_X2
*I *705:A4 I *D NOR4_X2
*I *708:A2 I *D NOR3_X1
*I *660:ZN O *D INV_X1
*CAP
1 *873:A 0
2 *697:A4 5.6443e-05
3 *696:A4 0
4 *705:A4 6.10103e-05
5 *708:A2 2.6705e-05
6 *660:ZN 3.19059e-05
7 *159:40 0.000128013
8 *159:25 0.000149475
9 *159:8 4.35999e-05
10 *159:6 3.19059e-05
11 *697:A4 *697:A3 1.90816e-05
12 *697:A4 *702:A4 2.39679e-06
13 *697:A4 *202:12 2.08416e-06
14 *697:A4 *202:27 1.0432e-05
15 *697:A4 *596:22 5.52959e-06
16 *705:A4 *705:A3 8.96338e-05
17 *705:A4 *235:26 2.03308e-05
18 *708:A2 *202:12 3.47409e-05
19 *708:A2 *596:24 6.13253e-05
20 *708:A2 *596:28 1.72405e-05
21 *159:6 *873:B 1.25215e-05
22 *159:6 *595:47 2.56243e-06
23 *159:6 *597:32 4.29935e-05
24 *159:25 *202:12 7.50533e-05
25 *159:25 *235:26 6.76357e-05
26 *159:25 *596:24 4.44127e-06
27 *159:40 *697:A1 0
28 *159:40 *705:A3 9.58715e-06
29 *159:40 *235:26 2.52965e-06
30 *159:40 *595:47 1.67419e-05
31 *159:40 *596:14 6.32202e-06
32 *159:40 *596:22 3.72101e-06
33 *159:40 *629:10 4.04742e-06
34 *702:A1 *697:A4 2.11458e-06
35 *871:A2 *705:A4 5.11574e-06
36 *154:14 *159:40 1.74029e-05
37 *154:27 *159:40 3.49085e-06
*RES
1 *660:ZN *159:6 9.25 
2 *159:6 *159:8 5 
3 *159:8 *708:A2 15.3214 
4 *159:8 *159:25 9.32143 
5 *159:25 *705:A4 13.75 
6 *159:25 *159:40 18.8929 
7 *159:40 *696:A4 5 
8 *159:40 *697:A4 11.75 
9 *159:6 *873:A 5 
*END

*D_NET *160 0.000111907
*CONN
*I *885:B2 I *D AOI21_X1
*I *661:ZN O *D INV_X1
*CAP
1 *885:B2 4.86647e-05
2 *661:ZN 4.86647e-05
3 *885:B2 *661:A 0
4 *885:B2 *662:A 0
5 *885:B2 *184:115 0
6 *885:B2 *246:10 1.45779e-05
*RES
1 *661:ZN *885:B2 25 
*END

*D_NET *161 0.000180371
*CONN
*I *897:B2 I *D AOI21_X1
*I *662:ZN O *D INV_X1
*CAP
1 *897:B2 5.09486e-05
2 *662:ZN 5.09486e-05
3 *897:B2 *662:A 1.72426e-05
4 *897:B2 *897:A 4.24381e-05
5 *897:B2 *960:RN 0
6 *897:B2 *184:115 1.87931e-05
7 *897:B2 *599:238 0
*RES
1 *662:ZN *897:B2 26.3571 
*END

*D_NET *162 0.000137946
*CONN
*I *918:B2 I *D AOI21_X1
*I *663:ZN O *D INV_X1
*CAP
1 *918:B2 5.09878e-05
2 *663:ZN 5.09878e-05
3 *918:B2 *663:A 1.77822e-05
4 *918:B2 *918:A 0
5 *918:B2 *918:B1 8.61595e-06
6 *918:B2 *184:73 9.57228e-06
7 *918:B2 *512:8 0
8 *918:B2 *599:211 0
9 *918:B2 *641:71 0
*RES
1 *663:ZN *918:B2 25.75 
*END

*D_NET *163 0.000554399
*CONN
*I *930:B2 I *D AOI21_X1
*I *664:ZN O *D INV_X1
*CAP
1 *930:B2 0.000157583
2 *664:ZN 0.000157583
3 *930:B2 *664:A 2.80752e-05
4 *930:B2 *775:S 2.3767e-06
5 *930:B2 *779:S 5.52959e-06
6 *930:B2 *930:A 4.24081e-05
7 *930:B2 *930:B1 2.52965e-06
8 *930:B2 *954:B2 2.49145e-05
9 *930:B2 *963:RN 8.62655e-06
10 *930:B2 *965:RN 4.4596e-05
11 *930:B2 *184:146 4.22174e-05
12 *930:B2 *184:152 3.02351e-05
13 *930:B2 *600:13 0
14 *930:B2 *604:36 7.72537e-06
*RES
1 *664:ZN *930:B2 41.3572 
*END

*D_NET *164 0.000298463
*CONN
*I *942:B2 I *D AOI21_X1
*I *665:ZN O *D INV_X1
*CAP
1 *942:B2 0.000106864
2 *665:ZN 0.000106864
3 *942:B2 *665:A 2.25683e-05
4 *942:B2 *942:A 2.83077e-06
5 *942:B2 *942:B1 1.55645e-05
6 *942:B2 *974:CK 4.37715e-05
7 *942:B2 *223:14 0
8 *942:B2 *510:12 0
*RES
1 *665:ZN *942:B2 32.5714 
*END

*D_NET *165 0.000585912
*CONN
*I *954:B2 I *D AOI21_X1
*I *666:ZN O *D INV_X1
*CAP
1 *954:B2 0.000148463
2 *666:ZN 0.000148463
3 *954:B2 *664:A 5.75996e-06
4 *954:B2 *775:S 3.89217e-05
5 *954:B2 *923:A4 6.48216e-07
6 *954:B2 *930:A 0.000117216
7 *954:B2 *954:B1 2.39679e-06
8 *954:B2 *965:RN 3.36492e-06
9 *954:B2 *232:138 1.26998e-05
10 *954:B2 *309:22 4.31223e-05
11 *954:B2 *604:36 0
12 *930:B2 *954:B2 2.49145e-05
13 *963:D *954:B2 3.99416e-05
*RES
1 *666:ZN *954:B2 41.7143 
*END

*D_NET *166 0.00021732
*CONN
*I *671:A1 I *D NOR4_X1
*I *667:Z O *D XOR2_X1
*CAP
1 *671:A1 5.72381e-05
2 *667:Z 5.72381e-05
3 *671:A1 *667:B 6.6508e-05
4 *671:A1 *671:A2 1.37673e-05
5 *671:A1 *671:A3 0
6 *671:A1 *711:A2 0
7 *671:A1 *170:14 2.25683e-05
8 *671:A1 *184:10 0
*RES
1 *667:Z *671:A1 28.1429 
*END

*D_NET *167 0.000100044
*CONN
*I *671:A2 I *D NOR4_X1
*I *668:Z O *D XOR2_X1
*CAP
1 *671:A2 4.27168e-05
2 *668:Z 4.27168e-05
3 *671:A2 *671:A4 8.43215e-07
4 *671:A2 *711:A2 0
5 *671:A1 *671:A2 1.37673e-05
*RES
1 *668:Z *671:A2 14.8929 
*END

*D_NET *168 0.000474493
*CONN
*I *671:A3 I *D NOR4_X1
*I *669:Z O *D XOR2_X1
*CAP
1 *671:A3 0.000118268
2 *669:Z 0.000118268
3 *671:A3 *667:B 0
4 *671:A3 *670:A 4.37715e-05
5 *671:A3 *670:B 0
6 *671:A3 *671:A4 0.000144718
7 *671:A3 *184:10 3.61991e-05
8 *671:A1 *671:A3 0
9 *150:8 *671:A3 1.32678e-05
*RES
1 *669:Z *671:A3 36.3929 
*END

*D_NET *169 0.00036001
*CONN
*I *671:A4 I *D NOR4_X1
*I *670:Z O *D XOR2_X1
*CAP
1 *671:A4 3.48656e-05
2 *670:Z 3.48656e-05
3 *671:A4 *184:10 0.000144718
4 *671:A2 *671:A4 8.43215e-07
5 *671:A3 *671:A4 0.000144718
*RES
1 *670:Z *671:A4 28.4643 
*END

*D_NET *170 0.00150335
*CONN
*I *677:B1 I *D AOI21_X1
*I *688:B1 I *D AOI21_X1
*I *674:A1 I *D AND2_X1
*I *675:A1 I *D AND2_X1
*I *671:ZN O *D NOR4_X1
*CAP
1 *677:B1 0
2 *688:B1 4.37911e-05
3 *674:A1 0
4 *675:A1 3.48819e-05
5 *671:ZN 0.000123584
6 *170:39 0.000161182
7 *170:24 0.000226013
8 *170:14 0.000197325
9 *675:A1 *675:A2 0
10 *675:A1 *971:CK 0
11 *688:B1 *674:A2 1.90208e-06
12 *688:B1 *688:B2 1.1634e-05
13 *688:B1 *971:RN 0
14 *688:B1 *599:11 1.25722e-05
15 *170:14 *667:A 0
16 *170:14 *667:B 2.80752e-05
17 *170:14 *677:B2 1.045e-05
18 *170:14 *711:A2 0
19 *170:14 *968:CK 5.97489e-05
20 *170:14 *971:CK 0
21 *170:14 *174:10 3.54221e-05
22 *170:14 *639:64 0
23 *170:24 *675:A2 0
24 *170:24 *677:B2 0.000143483
25 *170:24 *729:B 0
26 *170:24 *968:RN 1.39834e-05
27 *170:24 *174:10 7.72537e-06
28 *170:39 *674:A2 2.16072e-07
29 *170:39 *729:A 2.63307e-05
30 *170:39 *968:RN 5.62265e-05
31 *170:39 *971:RN 1.3743e-06
32 *170:39 *598:23 0
33 *170:39 *599:11 8.24917e-06
34 *170:39 *599:24 0.000243986
35 *671:A1 *170:14 2.25683e-05
36 *677:A *170:14 2.39679e-06
37 *677:A *170:24 7.19036e-06
38 *688:A *688:B1 2.75346e-06
39 *689:A1 *688:B1 2.37093e-06
40 *689:A2 *688:B1 6.40668e-06
41 *968:D *170:14 0
42 *971:D *170:39 0
43 *976:D *675:A1 2.23415e-06
44 *976:D *170:24 2.56243e-06
45 *147:6 *688:B1 6.71316e-06
*RES
1 *671:ZN *170:14 30.5357 
2 *170:14 *170:24 20.7143 
3 *170:24 *675:A1 8.25 
4 *170:24 *170:39 28.6072 
5 *170:39 *674:A1 5 
6 *170:39 *688:B1 12.1071 
7 *170:14 *677:B1 5 
*END

*D_NET *171 0.000186552
*CONN
*I *688:B2 I *D AOI21_X1
*I *674:A2 I *D AND2_X1
*I *672:ZN O *D XNOR2_X1
*CAP
1 *688:B2 4.10878e-05
2 *674:A2 3.20468e-05
3 *672:ZN 0
4 *171:4 7.31347e-05
5 *674:A2 *598:12 2.13496e-05
6 *674:A2 *598:23 3.58094e-06
7 *688:B2 *695:A 0
8 *688:B2 *598:23 1.60038e-06
9 *688:B1 *674:A2 1.90208e-06
10 *688:B1 *688:B2 1.1634e-05
11 *971:D *688:B2 0
12 *170:39 *674:A2 2.16072e-07
*RES
1 *672:ZN *171:4 5 
2 *171:4 *674:A2 19.2143 
3 *171:4 *688:B2 9.67857 
*END

*D_NET *172 0.000801476
*CONN
*I *677:B2 I *D AOI21_X1
*I *675:A2 I *D AND2_X1
*I *673:Z O *D XOR2_X1
*CAP
1 *677:B2 9.83617e-05
2 *675:A2 7.89497e-05
3 *673:Z 2.68519e-05
4 *172:6 0.000204163
5 *675:A2 *729:A 8.22137e-05
6 *675:A2 *971:CK 8.27554e-05
7 *675:A2 *613:25 0
8 *677:B2 *673:A 1.72405e-05
9 *677:B2 *729:B 0
10 *677:B2 *968:RN 1.17765e-05
11 *677:B2 *599:24 9.52324e-06
12 *172:6 *673:A 2.80752e-05
13 *172:6 *673:B 7.63212e-06
14 *675:A1 *675:A2 0
15 *971:D *172:6 0
16 *170:14 *677:B2 1.045e-05
17 *170:24 *675:A2 0
18 *170:24 *677:B2 0.000143483
*RES
1 *673:Z *172:6 8.25 
2 *172:6 *675:A2 25.0714 
3 *172:6 *677:B2 28.8214 
*END

*D_NET *173 0.00109315
*CONN
*I *745:A2 I *D NOR3_X1
*I *723:A1 I *D NOR2_X1
*I *735:A1 I *D NOR2_X1
*I *681:A1 I *D NOR2_X1
*I *676:ZN O *D NAND2_X1
*CAP
1 *745:A2 1.89053e-05
2 *723:A1 3.87075e-05
3 *735:A1 7.81224e-06
4 *681:A1 1.78964e-05
5 *676:ZN 0.000152374
6 *173:32 7.00514e-05
7 *173:21 2.54068e-05
8 *173:8 0.000175426
9 *681:A1 *681:A2 4.21607e-06
10 *681:A1 *735:A2 2.16072e-07
11 *681:A1 *179:29 4.26902e-05
12 *681:A1 *190:14 4.32298e-05
13 *723:A1 *723:A2 8.43215e-07
14 *723:A1 *731:A2 1.33042e-06
15 *723:A1 *1203:A 5.70047e-05
16 *723:A1 *216:18 4.24456e-05
17 *735:A1 *735:A2 8.43215e-07
18 *735:A1 *221:27 1.25215e-05
19 *745:A2 *739:A2 1.54143e-05
20 *745:A2 *745:A3 1.25215e-05
21 *745:A2 *179:29 2.42777e-05
22 *745:A2 *190:14 3.63265e-05
23 *173:8 *657:A 6.74466e-06
24 *173:8 *681:A2 0
25 *173:8 *1165:A 7.96507e-06
26 *173:8 *216:18 8.26658e-06
27 *173:8 *218:60 1.51547e-06
28 *173:8 *221:27 2.09678e-05
29 *173:21 *179:29 2.96955e-05
30 *173:21 *190:14 2.57414e-05
31 *173:32 *179:29 3.92169e-05
32 *173:32 *190:14 3.54847e-05
33 *676:A2 *173:8 1.97322e-06
34 *745:A1 *745:A2 1.25215e-05
35 *156:10 *173:8 0.000102598
*RES
1 *676:ZN *173:8 27.75 
2 *173:8 *681:A1 13.5357 
3 *173:8 *173:21 1.60714 
4 *173:21 *735:A1 11.25 
5 *173:21 *173:32 2.28572 
6 *173:32 *723:A1 15.75 
7 *173:32 *745:A2 13.5357 
*END

*D_NET *174 0.00150403
*CONN
*I *678:A2 I *D NAND2_X1
*I *684:A2 I *D NAND3_X1
*I *955:B I *D XNOR2_X1
*I *730:A4 I *D NAND4_X1
*I *725:A3 I *D NAND3_X1
*I *680:A2 I *D NAND3_X1
*I *677:ZN O *D AOI21_X1
*CAP
1 *678:A2 2.51327e-05
2 *684:A2 2.29218e-05
3 *955:B 2.80546e-05
4 *730:A4 8.52651e-06
5 *725:A3 3.5683e-05
6 *680:A2 3.53689e-05
7 *677:ZN 0.000127387
8 *174:33 4.42095e-05
9 *174:20 7.50252e-05
10 *174:14 7.6924e-05
11 *174:12 8.96811e-05
12 *174:10 0.000210066
13 *678:A2 *668:A 1.21774e-06
14 *678:A2 *679:A2 0
15 *678:A2 *956:A 0
16 *678:A2 *609:51 2.65833e-06
17 *680:A2 *680:A1 1.74934e-05
18 *680:A2 *680:A3 2.39679e-06
19 *680:A2 *728:A2 7.72537e-06
20 *680:A2 *221:18 2.27341e-05
21 *680:A2 *616:20 2.52965e-06
22 *684:A2 *684:A3 2.39679e-06
23 *684:A2 *956:A 0
24 *725:A3 *725:A2 2.55122e-05
25 *725:A3 *217:10 2.75346e-06
26 *725:A3 *217:23 9.37114e-06
27 *730:A4 *725:A2 7.72792e-06
28 *730:A4 *730:A3 4.97191e-06
29 *730:A4 *217:23 1.86809e-06
30 *955:B *956:A 0
31 *955:B *972:CK 4.26314e-06
32 *174:10 *956:B 2.93162e-05
33 *174:10 *968:CK 3.82926e-05
34 *174:10 *610:12 0.000159886
35 *174:10 *610:14 2.78068e-05
36 *174:10 *638:58 5.34427e-06
37 *174:10 *639:64 0
38 *174:12 *956:B 6.62369e-05
39 *174:12 *610:14 2.60713e-06
40 *174:12 *610:16 9.55059e-06
41 *174:12 *610:20 2.59426e-05
42 *174:12 *638:47 5.05057e-06
43 *174:12 *638:58 2.71064e-05
44 *174:14 *610:20 4.04963e-06
45 *174:14 *638:47 1.16229e-06
46 *174:20 *221:18 5.2817e-05
47 *174:20 *610:20 2.79857e-05
48 *174:20 *638:47 7.03946e-06
49 *677:A *174:10 2.43548e-06
50 *733:A1 *680:A2 2.31472e-05
51 *733:A1 *174:20 3.24775e-06
52 *153:6 *955:B 1.87392e-05
53 *153:15 *684:A2 6.27479e-06
54 *153:15 *955:B 2.22446e-05
55 *170:14 *174:10 3.54221e-05
56 *170:24 *174:10 7.72537e-06
*RES
1 *677:ZN *174:10 30.2857 
2 *174:10 *174:12 9.07143 
3 *174:12 *174:14 0.928572 
4 *174:14 *174:20 6 
5 *174:20 *680:A2 15.3929 
6 *174:20 *174:33 5 
7 *174:33 *725:A3 9.17857 
8 *174:33 *730:A4 6.25 
9 *174:14 *955:B 13.75 
10 *174:12 *684:A2 12.25 
11 *174:10 *678:A2 12.25 
*END

*D_NET *175 0.00033608
*CONN
*I *956:B I *D XNOR2_X1
*I *678:ZN O *D NAND2_X1
*CAP
1 *956:B 5.95747e-05
2 *678:ZN 5.95747e-05
3 *956:B *956:A 2.73686e-05
4 *956:B *972:CK 0
5 *956:B *609:51 0
6 *956:B *610:14 9.14248e-05
7 *973:D *956:B 2.58428e-06
8 *174:10 *956:B 2.93162e-05
9 *174:12 *956:B 6.62369e-05
*RES
1 *678:ZN *956:B 29.25 
*END

*D_NET *176 0.000470015
*CONN
*I *684:A3 I *D NAND3_X1
*I *680:A3 I *D NAND3_X1
*I *679:ZN O *D NOR2_X1
*CAP
1 *684:A3 7.63924e-06
2 *680:A3 5.3728e-05
3 *679:ZN 3.4962e-05
4 *176:8 9.63293e-05
5 *680:A3 *177:18 8.727e-07
6 *680:A3 *180:12 5.61838e-05
7 *680:A3 *217:23 4.11048e-05
8 *680:A3 *228:10 0
9 *680:A3 *616:20 7.72792e-06
10 *684:A3 *599:131 4.32144e-07
11 *176:8 *670:A 0
12 *176:8 *180:12 4.71543e-06
13 *679:A1 *176:8 2.94455e-05
14 *680:A2 *680:A3 2.39679e-06
15 *684:A1 *680:A3 1.64909e-05
16 *684:A1 *176:8 2.36944e-05
17 *684:A2 *684:A3 2.39679e-06
18 *730:A2 *680:A3 5.46432e-05
19 *733:A1 *680:A3 2.14028e-05
20 *733:A1 *176:8 1.34524e-05
21 *153:15 *684:A3 2.39679e-06
*RES
1 *679:ZN *176:8 15 
2 *176:8 *680:A3 19.8214 
3 *176:8 *684:A3 10.75 
*END

*D_NET *177 0.00151504
*CONN
*I *739:A1 I *D NOR2_X1
*I *681:A2 I *D NOR2_X1
*I *751:A1 I *D NOR2_X1
*I *749:A3 I *D NOR3_X1
*I *680:ZN O *D NAND3_X1
*CAP
1 *739:A1 0.0001479
2 *681:A2 4.70121e-05
3 *751:A1 2.85872e-05
4 *749:A3 0
5 *680:ZN 9.7484e-05
6 *177:29 0.00013436
7 *177:27 0.000284145
8 *177:18 0.000174969
9 *681:A2 *657:A 2.16072e-07
10 *681:A2 *231:27 5.84443e-05
11 *739:A1 *739:A2 7.72792e-06
12 *739:A1 *745:A3 5.46411e-05
13 *739:A1 *1165:A 7.57858e-06
14 *739:A1 *205:16 0
15 *739:A1 *206:40 1.92742e-05
16 *739:A1 *231:14 1.62262e-06
17 *739:A1 *622:38 3.23723e-07
18 *739:A1 *629:10 4.99366e-05
19 *739:A1 *633:185 1.24618e-05
20 *739:A1 *638:10 5.66515e-06
21 *751:A1 *629:10 1.57686e-05
22 *177:18 *749:A1 4.63892e-05
23 *177:18 *749:A2 2.39679e-06
24 *177:18 *753:A1 7.19036e-06
25 *177:18 *180:12 2.25658e-05
26 *177:18 *221:27 2.75119e-06
27 *177:18 *228:10 1.48912e-05
28 *177:18 *611:12 1.80259e-05
29 *177:18 *616:16 4.40519e-05
30 *177:27 *749:A2 1.19839e-05
31 *177:27 *1203:A 2.39679e-06
32 *177:27 *216:18 7.72537e-06
33 *177:27 *221:27 2.90685e-06
34 *177:27 *231:14 1.24436e-05
35 *177:27 *616:16 8.51001e-05
36 *177:29 *1165:A 3.06916e-06
37 *177:29 *216:18 9.26123e-06
38 *177:29 *231:14 1.66144e-05
39 *177:29 *629:10 1.832e-05
40 *680:A3 *177:18 8.727e-07
41 *681:A1 *681:A2 4.21607e-06
42 *745:A1 *177:27 3.83453e-06
43 *158:14 *751:A1 2.99163e-05
44 *173:8 *681:A2 0
*RES
1 *680:ZN *177:18 27.4643 
2 *177:18 *749:A3 5 
3 *177:18 *177:27 15.25 
4 *177:27 *177:29 7.03572 
5 *177:29 *751:A1 14.3214 
6 *177:29 *681:A2 15.75 
7 *177:27 *739:A1 28.0357 
*END

*D_NET *178 0.00972484
*CONN
*I *827:S I *D MUX2_X1
*I *682:S I *D MUX2_X1
*I *828:S I *D MUX2_X1
*I *830:S I *D MUX2_X1
*I *832:S I *D MUX2_X1
*I *829:S I *D MUX2_X1
*I *831:S I *D MUX2_X1
*I *833:S I *D MUX2_X1
*I *681:ZN O *D NOR2_X1
*CAP
1 *827:S 8.71307e-06
2 *682:S 0
3 *828:S 5.55645e-05
4 *830:S 6.71341e-05
5 *832:S 0
6 *829:S 0
7 *831:S 0.000157254
8 *833:S 0
9 *681:ZN 8.81783e-05
10 *178:115 0.000517678
11 *178:113 0.000564952
12 *178:105 0.000554079
13 *178:70 0.000716391
14 *178:62 0.000294747
15 *178:26 0.000209448
16 *178:24 0.00123641
17 *178:20 0.00124102
18 *178:16 0.000105307
19 *178:12 0.000248119
20 *178:10 0.000375806
21 *827:S *685:A1 0
22 *828:S *601:9 5.1189e-05
23 *828:S *601:11 7.74262e-05
24 *828:S *601:13 5.59765e-05
25 *830:S *830:A 2.28853e-05
26 *830:S *181:90 2.98465e-06
27 *830:S *274:14 1.60566e-05
28 *830:S *556:14 2.5758e-05
29 *830:S *620:12 1.53761e-05
30 *830:S *633:240 8.78657e-06
31 *831:S *775:B 0
32 *831:S *812:A 7.07586e-06
33 *831:S *833:A 0.000121198
34 *831:S *943:A1 3.4958e-06
35 *831:S *953:A1 0
36 *831:S *181:73 1.56073e-06
37 *831:S *303:12 0
38 *831:S *606:9 4.51787e-05
39 *831:S *606:11 1.41532e-05
40 *831:S *606:13 3.01743e-06
41 *178:10 *731:A2 0
42 *178:10 *737:A2 2.07091e-05
43 *178:10 *231:27 2.24331e-06
44 *178:10 *507:14 2.23756e-05
45 *178:12 *780:A 1.02922e-05
46 *178:12 *783:B 8.78713e-06
47 *178:12 *808:A 4.17885e-06
48 *178:12 *832:A 0
49 *178:12 *904:C2 5.10087e-06
50 *178:12 *931:A1 0
51 *178:12 *211:10 0.000562634
52 *178:12 *223:43 0
53 *178:12 *571:10 2.27157e-05
54 *178:12 *605:90 1.88334e-06
55 *178:12 *605:146 1.84823e-05
56 *178:16 *211:10 0.000168976
57 *178:16 *605:90 6.05615e-05
58 *178:20 *211:10 6.41643e-06
59 *178:20 *222:16 1.53304e-05
60 *178:20 *222:18 7.17389e-06
61 *178:20 *605:79 5.14107e-05
62 *178:20 *605:90 9.60849e-05
63 *178:24 *181:54 0
64 *178:24 *205:125 9.23622e-05
65 *178:24 *633:97 5.45829e-06
66 *178:26 *181:73 1.83506e-05
67 *178:26 *606:13 1.50871e-05
68 *178:26 *606:15 1.18471e-05
69 *178:62 *685:A1 3.09411e-06
70 *178:62 *827:A 8.43215e-07
71 *178:62 *827:B 2.39679e-06
72 *178:62 *879:A1 2.16072e-07
73 *178:62 *879:A2 0
74 *178:62 *883:A1 1.91498e-06
75 *178:62 *180:38 7.72792e-06
76 *178:62 *211:10 9.99737e-05
77 *178:62 *216:69 9.3409e-06
78 *178:62 *225:12 0
79 *178:62 *225:20 0
80 *178:62 *507:14 0
81 *178:62 *571:10 0
82 *178:62 *621:25 3.19164e-07
83 *178:70 *827:A 5.90251e-06
84 *178:70 *827:B 1.49183e-05
85 *178:70 *865:A 0.00020017
86 *178:70 *196:20 4.18985e-05
87 *178:70 *216:69 1.17005e-05
88 *178:70 *603:85 0.000308091
89 *178:70 *603:96 9.93819e-05
90 *178:70 *603:111 0.000159845
91 *178:70 *620:12 0
92 *178:70 *625:14 1.33724e-06
93 *178:70 *632:26 4.7181e-06
94 *178:70 *633:199 5.51098e-06
95 *178:70 *633:215 2.96932e-05
96 *178:70 *633:252 5.6231e-06
97 *178:105 *181:90 2.42148e-07
98 *178:105 *556:14 2.33532e-06
99 *178:105 *607:137 8.34941e-06
100 *178:113 *698:A2 0
101 *178:113 *703:A1 8.4128e-08
102 *178:113 *703:A2 4.12566e-07
103 *178:113 *703:B1 3.24409e-07
104 *178:113 *703:B2 8.64288e-07
105 *178:113 *740:A 0
106 *178:113 *746:B 9.66283e-05
107 *178:113 *835:S 1.69426e-06
108 *178:113 *181:109 0
109 *178:113 *552:12 2.39679e-06
110 *178:113 *568:10 8.86023e-06
111 *178:113 *607:137 6.0132e-05
112 *178:113 *647:68 8.43215e-07
113 *178:115 *746:B 3.75461e-05
114 *178:115 *758:A 1.332e-05
115 *178:115 *758:B 0
116 *178:115 *758:S 9.78549e-05
117 *178:115 *807:B 0
118 *178:115 *835:S 0
119 *178:115 *875:A2 1.28987e-05
120 *178:115 *887:B2 0
121 *178:115 *890:A2 5.91164e-06
122 *178:115 *891:A1 1.2509e-05
123 *178:115 *959:CK 4.21607e-06
124 *178:115 *601:55 1.69294e-05
125 *178:115 *601:57 1.56664e-05
126 *178:115 *601:65 3.23723e-07
127 *178:115 *649:95 5.4364e-05
128 *178:115 *649:106 6.68941e-05
129 *178:115 *649:115 2.04866e-05
130 *1018:D *828:S 1.76415e-05
131 *1021:D *831:S 7.66675e-07
132 *1024:D *178:105 8.34941e-06
*RES
1 *681:ZN *178:10 19.1786 
2 *178:10 *178:12 30.7857 
3 *178:12 *178:16 9.82143 
4 *178:16 *178:20 13.2857 
5 *178:20 *178:24 47 
6 *178:24 *178:26 6.92857 
7 *178:26 *833:S 10 
8 *178:26 *831:S 31.2857 
9 *178:16 *829:S 10 
10 *178:12 *832:S 10 
11 *178:10 *178:62 15.9286 
12 *178:62 *178:70 43.1786 
13 *178:70 *830:S 20.0329 
14 *178:70 *178:105 43.4643 
15 *178:105 *178:113 21 
16 *178:113 *178:115 56.25 
17 *178:115 *828:S 24.75 
18 *178:105 *682:S 5 
19 *178:62 *827:S 5.92857 
*END

*D_NET *179 0.00244638
*CONN
*I *755:A2 I *D NOR3_X1
*I *739:A2 I *D NOR2_X1
*I *685:A1 I *D NOR2_X1
*I *741:A1 I *D NOR2_X1
*I *683:ZN O *D NAND2_X1
*CAP
1 *755:A2 7.48549e-05
2 *739:A2 7.19242e-05
3 *685:A1 0.000106089
4 *741:A1 6.09993e-06
5 *683:ZN 4.53582e-05
6 *179:29 0.000239321
7 *179:18 0.000200853
8 *179:10 0.000253658
9 *685:A1 *731:A1 7.19036e-06
10 *685:A1 *731:A2 3.37286e-06
11 *685:A1 *1203:A 3.62228e-05
12 *685:A1 *180:23 2.45938e-06
13 *685:A1 *180:38 6.41318e-06
14 *685:A1 *216:69 3.62253e-05
15 *685:A1 *229:8 7.19036e-06
16 *685:A1 *229:10 7.70714e-06
17 *685:A1 *621:12 0
18 *739:A2 *1170:A 1.27837e-05
19 *739:A2 *190:14 5.35716e-05
20 *739:A2 *229:10 2.08098e-06
21 *739:A2 *628:10 1.0629e-05
22 *739:A2 *638:10 3.09411e-06
23 *741:A1 *231:27 2.52965e-06
24 *741:A1 *638:25 7.19036e-06
25 *755:A2 *727:A2 6.68461e-05
26 *755:A2 *903:B1 3.22858e-06
27 *755:A2 *217:48 0.00021524
28 *755:A2 *217:55 7.19036e-06
29 *755:A2 *234:14 1.23839e-05
30 *755:A2 *265:12 3.01743e-06
31 *755:A2 *612:32 3.81944e-05
32 *755:A2 *612:34 0.000229822
33 *179:10 *683:A2 4.48778e-05
34 *179:10 *726:A1 8.43429e-06
35 *179:10 *903:B1 1.65484e-05
36 *179:10 *205:16 0
37 *179:10 *218:60 9.05253e-06
38 *179:10 *612:34 4.11157e-05
39 *179:10 *612:55 9.68501e-06
40 *179:18 *726:A1 1.80826e-05
41 *179:18 *190:14 1.65616e-05
42 *179:18 *190:22 1.33704e-05
43 *179:18 *205:16 2.86487e-05
44 *179:18 *218:8 8.49592e-06
45 *179:18 *218:18 2.08953e-05
46 *179:18 *224:10 5.34211e-05
47 *179:18 *232:8 3.16298e-05
48 *179:18 *638:25 8.60585e-06
49 *179:29 *190:14 4.48999e-05
50 *179:29 *224:10 0.000117646
51 *179:29 *229:10 5.34428e-06
52 *681:A1 *179:29 4.26902e-05
53 *683:A1 *179:10 6.47943e-06
54 *727:A1 *179:10 0
55 *739:A1 *739:A2 7.72792e-06
56 *745:A2 *739:A2 1.54143e-05
57 *745:A2 *179:29 2.42777e-05
58 *755:A1 *755:A2 7.72537e-06
59 *827:S *685:A1 0
60 *173:21 *179:29 2.96955e-05
61 *173:32 *179:29 3.92169e-05
62 *178:62 *685:A1 3.09411e-06
*RES
1 *683:ZN *179:10 17.0357 
2 *179:10 *179:18 27.7143 
3 *179:18 *741:A1 10.75 
4 *179:18 *179:29 10.25 
5 *179:29 *685:A1 22.3571 
6 *179:29 *739:A2 20 
7 *179:10 *755:A2 27.2857 
*END

*D_NET *180 0.00143788
*CONN
*I *685:A2 I *D NOR2_X1
*I *737:A1 I *D NOR2_X1
*I *723:A2 I *D NOR2_X1
*I *743:A3 I *D NOR3_X1
*I *684:ZN O *D NAND3_X1
*CAP
1 *685:A2 0
2 *737:A1 2.14476e-05
3 *723:A2 1.04036e-05
4 *743:A3 0
5 *684:ZN 9.96516e-05
6 *180:38 7.32845e-05
7 *180:23 0.000270943
8 *180:12 0.000308354
9 *723:A2 *731:A2 2.42486e-05
10 *723:A2 *638:12 1.63221e-05
11 *180:12 *670:A 0
12 *180:12 *743:A1 2.52965e-06
13 *180:12 *1171:A 2.26304e-06
14 *180:12 *228:10 2.38139e-06
15 *180:12 *599:131 0
16 *180:12 *612:10 2.39679e-06
17 *180:12 *616:16 6.65423e-06
18 *180:23 *731:A1 1.68643e-06
19 *180:23 *731:A2 7.26402e-05
20 *180:23 *743:A1 8.43215e-07
21 *180:23 *745:A3 7.75272e-05
22 *180:23 *1203:A 1.91498e-06
23 *180:23 *217:55 4.10196e-05
24 *180:23 *222:10 2.08098e-06
25 *180:23 *229:8 3.09143e-06
26 *180:23 *231:14 1.50843e-05
27 *180:23 *611:66 0
28 *180:23 *612:6 2.53855e-05
29 *180:23 *612:10 5.74747e-05
30 *180:23 *621:12 2.78249e-05
31 *180:23 *622:38 0
32 *180:23 *638:10 5.28925e-05
33 *180:23 *638:12 2.26301e-05
34 *180:38 *731:A2 1.87369e-06
35 *180:38 *737:A2 0
36 *180:38 *225:63 3.92729e-06
37 *680:A3 *180:12 5.61838e-05
38 *685:A1 *180:23 2.45938e-06
39 *685:A1 *180:38 6.41318e-06
40 *723:A1 *723:A2 8.43215e-07
41 *745:A1 *180:23 8.81926e-05
42 *176:8 *180:12 4.71543e-06
43 *177:18 *180:12 2.25658e-05
44 *178:62 *180:38 7.72792e-06
*RES
1 *684:ZN *180:12 27.6429 
2 *180:12 *743:A3 5 
3 *180:12 *180:23 34.5714 
4 *180:23 *723:A2 11.6786 
5 *180:23 *180:38 10.25 
6 *180:38 *737:A1 7.28572 
7 *180:38 *685:A2 5 
*END

*D_NET *181 0.0103582
*CONN
*I *809:S I *D MUX2_X1
*I *807:S I *D MUX2_X1
*I *806:S I *D MUX2_X1
*I *686:S I *D MUX2_X1
*I *812:S I *D MUX2_X1
*I *810:S I *D MUX2_X1
*I *811:S I *D MUX2_X1
*I *808:S I *D MUX2_X1
*I *685:ZN O *D NOR2_X1
*CAP
1 *809:S 0.000107689
2 *807:S 0.000106257
3 *806:S 0.000200063
4 *686:S 0
5 *812:S 0
6 *810:S 0
7 *811:S 5.38835e-05
8 *808:S 8.88991e-05
9 *685:ZN 0
10 *181:119 0.000517901
11 *181:109 0.000552796
12 *181:90 0.000672743
13 *181:80 0.000701192
14 *181:73 0.000296471
15 *181:54 0.000743512
16 *181:31 0.000659321
17 *181:29 0.000386058
18 *181:10 0.000441952
19 *181:6 0.000387365
20 *806:S *786:S 0
21 *806:S *806:B 2.87248e-06
22 *806:S *893:B2 0
23 *806:S *895:A3 0
24 *806:S *1041:CK 1.1175e-05
25 *806:S *1065:CK 0
26 *806:S *196:95 3.76527e-05
27 *806:S *196:103 0.000133405
28 *806:S *569:10 0
29 *806:S *601:23 0.000106624
30 *807:S *891:A1 8.14262e-05
31 *807:S *895:A3 0
32 *807:S *196:95 8.89221e-05
33 *807:S *546:8 3.75707e-05
34 *807:S *649:121 0
35 *807:S *649:141 0
36 *808:S *808:A 1.71805e-05
37 *808:S *224:10 4.32319e-05
38 *808:S *229:10 1.58752e-05
39 *808:S *630:35 2.7629e-05
40 *809:S *699:A4 4.88118e-06
41 *809:S *202:27 3.51654e-06
42 *809:S *274:14 0
43 *809:S *597:12 5.96136e-06
44 *809:S *597:18 1.48061e-05
45 *811:S *719:A2 1.39839e-06
46 *811:S *811:A 1.20872e-05
47 *811:S *811:B 5.56848e-05
48 *811:S *845:S 1.67968e-05
49 *811:S *909:A2 3.01743e-06
50 *811:S *605:113 2.80777e-05
51 *811:S *616:45 1.91498e-06
52 *811:S *619:73 0
53 *181:10 *211:10 0.000120617
54 *181:10 *222:14 0.00012383
55 *181:10 *234:33 1.32625e-05
56 *181:29 *808:A 5.6007e-06
57 *181:29 *825:A 0
58 *181:29 *848:A 1.87637e-06
59 *181:29 *848:S 7.72537e-06
60 *181:29 *904:C2 3.71299e-05
61 *181:29 *223:43 2.18038e-05
62 *181:29 *223:60 3.247e-05
63 *181:29 *630:35 8.92083e-05
64 *181:31 *825:B 0.000219202
65 *181:31 *845:S 4.02525e-05
66 *181:31 *191:62 7.25006e-06
67 *181:31 *223:60 1.07633e-05
68 *181:31 *605:113 0.000166594
69 *181:31 *623:10 1.89066e-06
70 *181:31 *628:52 7.5529e-06
71 *181:54 *810:B 2.23871e-06
72 *181:54 *928:A2 9.08726e-05
73 *181:54 *205:125 4.00129e-05
74 *181:54 *286:8 9.03309e-05
75 *181:54 *302:14 3.74933e-05
76 *181:54 *616:66 0.000745321
77 *181:54 *644:151 2.61203e-05
78 *181:73 *810:B 6.38328e-07
79 *181:73 *812:A 0.000146829
80 *181:73 *833:A 0
81 *181:73 *943:A2 0
82 *181:73 *947:A1 1.07393e-05
83 *181:73 *949:A1 1.87166e-06
84 *181:73 *949:A2 1.19839e-05
85 *181:73 *949:B2 0
86 *181:73 *952:A2 1.07428e-06
87 *181:73 *1047:CK 2.07669e-05
88 *181:73 *302:14 5.42579e-06
89 *181:73 *303:12 1.59582e-06
90 *181:73 *479:10 0
91 *181:73 *535:8 0
92 *181:73 *628:88 2.55787e-06
93 *181:80 *687:A2 0
94 *181:80 *701:A2 0
95 *181:80 *1175:A 0
96 *181:80 *185:12 0
97 *181:80 *203:10 3.41866e-06
98 *181:80 *203:25 3.16844e-05
99 *181:80 *222:10 1.31694e-05
100 *181:80 *222:14 8.46678e-06
101 *181:80 *234:33 0.000650402
102 *181:80 *274:14 0
103 *181:80 *597:18 6.66781e-06
104 *181:80 *631:40 1.02866e-05
105 *181:80 *638:10 0
106 *181:90 *191:12 1.74267e-05
107 *181:90 *191:25 1.3787e-05
108 *181:90 *191:121 4.0767e-05
109 *181:90 *199:12 0
110 *181:90 *556:14 0
111 *181:109 *686:B 2.02526e-05
112 *181:109 *891:B1 0
113 *181:109 *1050:CK 1.80766e-05
114 *181:109 *226:82 0.000119741
115 *181:109 *226:86 3.02563e-05
116 *181:109 *226:98 1.89953e-05
117 *181:109 *234:47 0
118 *181:109 *250:12 1.11799e-05
119 *181:109 *255:14 0
120 *181:109 *607:137 1.65194e-05
121 *181:109 *647:8 6.88146e-06
122 *181:109 *647:19 1.31488e-05
123 *181:109 *647:23 4.93896e-05
124 *181:109 *647:68 1.33576e-05
125 *181:109 *647:79 1.43238e-06
126 *181:109 *649:6 7.21602e-06
127 *181:119 *786:S 2.17621e-05
128 *181:119 *876:B2 7.19036e-06
129 *181:119 *888:A1 1.04526e-05
130 *181:119 *890:A3 2.83077e-06
131 *181:119 *890:A4 1.45878e-05
132 *181:119 *895:A1 0
133 *181:119 *895:A4 1.99969e-05
134 *181:119 *226:98 0.000104194
135 *181:119 *234:51 0
136 *181:119 *246:10 3.69646e-06
137 *181:119 *253:12 0
138 *181:119 *255:14 0
139 *702:A3 *809:S 1.98111e-05
140 *830:S *181:90 2.98465e-06
141 *831:S *181:73 1.56073e-06
142 *1023:D *181:73 7.50309e-05
143 *1024:D *181:109 5.56098e-05
144 *1030:D *181:29 2.24783e-06
145 *1039:D *181:73 0
146 *1041:D *806:S 1.34605e-05
147 *1048:D *181:90 2.19343e-06
148 *1048:D *181:109 4.87936e-05
149 *178:24 *181:54 0
150 *178:26 *181:73 1.83506e-05
151 *178:105 *181:90 2.42148e-07
152 *178:113 *181:109 0
*RES
1 *685:ZN *181:6 10 
2 *181:6 *181:10 24.25 
3 *181:10 *808:S 25.7857 
4 *181:10 *181:29 32.75 
5 *181:29 *181:31 24.75 
6 *181:31 *811:S 17.7143 
7 *181:31 *181:54 42.9986 
8 *181:54 *810:S 5 
9 *181:54 *181:73 45.0714 
10 *181:73 *812:S 5 
11 *181:6 *181:80 36.75 
12 *181:80 *181:90 26.9429 
13 *181:90 *686:S 5 
14 *181:90 *181:109 45.9643 
15 *181:109 *181:119 39.8572 
16 *181:119 *806:S 45 
17 *181:119 *807:S 24.5 
18 *181:80 *809:S 21.6429 
*END

*D_NET *182 0.00116541
*CONN
*I *717:A3 I *D NOR3_X1
*I *714:A3 I *D NOR3_X1
*I *693:A1 I *D NOR2_X1
*I *715:A3 I *D NOR3_X1
*I *687:ZN O *D NAND2_X1
*CAP
1 *717:A3 6.59448e-05
2 *714:A3 3.54753e-05
3 *693:A1 6.10381e-06
4 *715:A3 3.35856e-05
5 *687:ZN 2.15848e-05
6 *182:23 0.000103012
7 *182:21 0.000146836
8 *182:8 7.46282e-05
9 *693:A1 *185:16 7.19036e-06
10 *693:A1 *206:40 0
11 *714:A3 *693:A2 1.66988e-05
12 *714:A3 *708:A3 0.000103118
13 *714:A3 *715:A1 0.000116144
14 *714:A3 *594:115 1.68643e-06
15 *715:A3 *715:A2 2.75346e-06
16 *715:A3 *206:40 9.0924e-06
17 *715:A3 *209:6 6.46673e-07
18 *715:A3 *626:14 2.39679e-06
19 *717:A3 *709:A3 1.0303e-05
20 *717:A3 *185:16 7.72792e-06
21 *717:A3 *209:6 5.81102e-06
22 *717:A3 *209:21 2.33934e-05
23 *717:A3 *211:8 1.04526e-05
24 *717:A3 *212:18 3.07244e-05
25 *717:A3 *620:12 4.17885e-06
26 *182:8 *687:A2 4.12796e-06
27 *182:8 *626:14 6.46733e-05
28 *182:8 *632:14 7.767e-05
29 *182:21 *687:A2 2.31638e-05
30 *182:21 *632:14 6.18986e-05
31 *182:23 *715:A1 7.75289e-06
32 *182:23 *185:16 8.14184e-05
33 *182:23 *206:40 0
34 *182:23 *209:6 2.81643e-06
35 *714:A2 *714:A3 2.39679e-06
*RES
1 *687:ZN *182:8 14.3214 
2 *182:8 *715:A3 13.25 
3 *182:8 *182:21 8.64286 
4 *182:21 *182:23 8.25 
5 *182:23 *693:A1 5.75 
6 *182:23 *714:A3 22.1071 
7 *182:21 *717:A3 23.8571 
*END

*D_NET *183 0.00109545
*CONN
*I *869:B I *D XNOR2_X1
*I *906:S I *D MUX2_X1
*I *694:A1 I *D NAND2_X1
*I *691:A2 I *D NAND2_X1
*I *688:ZN O *D AOI21_X1
*CAP
1 *869:B 0.000117925
2 *906:S 1.20312e-05
3 *694:A1 7.42934e-06
4 *691:A2 3.71933e-05
5 *688:ZN 0.000132433
6 *183:23 6.09167e-05
7 *183:21 0.000159381
8 *183:10 0.000169626
9 *691:A2 *906:B 5.94167e-07
10 *691:A2 *594:58 3.02351e-05
11 *691:A2 *599:96 0
12 *691:A2 *639:64 3.08976e-05
13 *694:A1 *695:B 2.70833e-06
14 *869:B *962:RN 0
15 *869:B *967:CK 7.72792e-06
16 *869:B *184:50 1.20766e-05
17 *869:B *599:66 0
18 *869:B *599:75 0
19 *869:B *639:54 9.43422e-05
20 *906:S *695:B 3.95832e-06
21 *183:10 *695:B 0
22 *183:10 *906:A 3.53415e-05
23 *183:10 *906:B 4.07203e-06
24 *183:10 *961:RN 7.72537e-06
25 *183:10 *599:96 0
26 *183:23 *694:A2 2.61469e-06
27 *183:23 *906:A 6.62783e-06
28 *183:23 *184:50 8.87096e-06
29 *183:23 *639:54 7.72537e-06
30 *183:23 *639:64 7.72792e-06
31 *688:A *183:10 2.43548e-06
32 *689:A1 *183:10 4.51285e-05
33 *869:A *869:B 2.93445e-05
34 *961:D *906:S 0
35 *961:D *183:10 1.27114e-05
36 *961:D *183:23 0
37 *967:D *869:B 4.56509e-05
*RES
1 *688:ZN *183:10 26.2857 
2 *183:10 *691:A2 15 
3 *183:10 *183:21 5 
4 *183:21 *183:23 4.75 
5 *183:23 *694:A1 5.92857 
6 *183:23 *906:S 6.60714 
7 *183:21 *869:B 21.3571 
*END

*D_NET *184 0.0104128
*CONN
*I *918:B1 I *D AOI21_X1
*I *722:B1 I *D AOI21_X1
*I *897:B1 I *D AOI21_X1
*I *896:A1 I *D NOR3_X1
*I *930:B1 I *D AOI21_X1
*I *954:B1 I *D AOI21_X1
*I *953:A1 I *D NOR3_X1
*I *929:A1 I *D NOR3_X1
*I *884:A1 I *D NOR3_X1
*I *885:B1 I *D AOI21_X1
*I *721:A1 I *D NOR3_X1
*I *917:A1 I *D NOR3_X1
*I *941:A1 I *D NOR3_X1
*I *942:B1 I *D AOI21_X1
*I *689:ZN O *D OR2_X1
*CAP
1 *918:B1 9.47058e-06
2 *722:B1 2.09679e-05
3 *897:B1 1.20365e-05
4 *896:A1 0
5 *930:B1 1.37144e-05
6 *954:B1 1.68622e-05
7 *953:A1 0.000198137
8 *929:A1 0
9 *884:A1 5.50764e-05
10 *885:B1 0
11 *721:A1 5.87858e-05
12 *917:A1 1.50803e-05
13 *941:A1 0.000100697
14 *942:B1 0.000123683
15 *689:ZN 8.7727e-05
16 *184:158 0.00023299
17 *184:152 8.04309e-05
18 *184:146 0.000254767
19 *184:140 0.000289582
20 *184:127 0.000274881
21 *184:121 0.000230929
22 *184:115 0.000162138
23 *184:104 0.000194436
24 *184:92 0.000227032
25 *184:73 0.000338301
26 *184:67 0.000304229
27 *184:52 0.000296744
28 *184:50 0.000411289
29 *184:16 0.000297486
30 *184:10 0.000344783
31 *184:8 0.00057763
32 *721:A1 *721:A2 5.50692e-06
33 *721:A1 *746:B 4.97446e-06
34 *721:A1 *568:10 0
35 *721:A1 *647:79 1.97289e-05
36 *721:A1 *647:92 7.35912e-06
37 *722:B1 *722:A 1.27967e-05
38 *722:B1 *959:RN 7.19036e-06
39 *884:A1 *878:A1 2.75346e-06
40 *884:A1 *884:A2 1.53686e-05
41 *884:A1 *649:44 8.7424e-06
42 *897:B1 *897:A 7.19036e-06
43 *897:B1 *599:236 1.68643e-06
44 *897:B1 *649:106 0
45 *917:A1 *700:B2 0
46 *917:A1 *707:A2 0
47 *918:B1 *918:A 1.04674e-05
48 *930:B1 *604:36 6.85774e-07
49 *941:A1 *659:A 6.58486e-05
50 *941:A1 *683:A2 5.24321e-06
51 *941:A1 *836:A 0
52 *941:A1 *905:A2 1.80259e-05
53 *941:A1 *938:A2 3.62039e-05
54 *941:A1 *941:A3 1.21774e-06
55 *941:A1 *979:CK 6.52006e-07
56 *941:A1 *193:73 5.2854e-05
57 *941:A1 *223:35 6.48216e-07
58 *941:A1 *265:8 1.73125e-05
59 *941:A1 *292:12 8.00929e-05
60 *941:A1 *618:12 1.27666e-06
61 *941:A1 *630:16 5.39659e-06
62 *942:B1 *665:A 0
63 *942:B1 *683:A2 7.40328e-06
64 *942:B1 *942:A 4.55745e-05
65 *942:B1 *979:CK 9.62051e-07
66 *942:B1 *226:16 0
67 *942:B1 *638:36 0
68 *953:A1 *775:B 3.50308e-05
69 *953:A1 *831:A 0
70 *953:A1 *922:A1 0
71 *953:A1 *922:B1 1.13947e-05
72 *953:A1 *922:B2 4.9678e-06
73 *953:A1 *953:A2 4.44177e-05
74 *953:A1 *309:22 3.35822e-05
75 *953:A1 *604:19 1.28122e-06
76 *953:A1 *604:36 2.09871e-05
77 *953:A1 *645:69 0
78 *953:A1 *645:80 0
79 *954:B1 *803:S 0
80 *954:B1 *309:22 8.43215e-07
81 *184:8 *906:A 1.7184e-05
82 *184:8 *906:B 0.000106084
83 *184:10 *670:A 3.3844e-05
84 *184:10 *743:A2 1.04526e-05
85 *184:10 *753:A2 1.80327e-05
86 *184:10 *906:B 0.000597155
87 *184:10 *206:18 7.88832e-05
88 *184:10 *265:12 2.12792e-05
89 *184:10 *595:10 0.000143485
90 *184:10 *595:12 5.62244e-05
91 *184:10 *595:16 8.22158e-05
92 *184:10 *611:51 2.3767e-06
93 *184:10 *611:62 8.88497e-06
94 *184:10 *619:18 1.09429e-05
95 *184:16 *753:A2 1.61002e-06
96 *184:16 *1166:A 0.000191771
97 *184:16 *206:18 0.000293652
98 *184:16 *228:10 1.52806e-05
99 *184:16 *233:8 6.94703e-06
100 *184:50 *691:A1 6.48216e-07
101 *184:50 *694:A2 1.60244e-05
102 *184:50 *962:RN 0
103 *184:50 *967:CK 5.33113e-06
104 *184:50 *594:14 0
105 *184:50 *594:45 1.08945e-05
106 *184:50 *639:54 9.93141e-05
107 *184:50 *639:64 7.72792e-06
108 *184:52 *760:S 5.11574e-06
109 *184:52 *809:B 0.000110409
110 *184:52 *816:B 0
111 *184:52 *816:S 9.62051e-07
112 *184:52 *913:A1 2.97636e-06
113 *184:52 *916:A2 8.30282e-06
114 *184:52 *917:A2 2.83434e-06
115 *184:52 *188:126 7.78555e-06
116 *184:52 *188:134 2.80734e-05
117 *184:52 *202:27 0
118 *184:67 *887:A2 4.16963e-06
119 *184:67 *917:A3 0
120 *184:67 *918:A 1.08206e-05
121 *184:67 *188:134 1.05829e-05
122 *184:67 *623:10 5.94701e-05
123 *184:73 *700:A1 0
124 *184:73 *734:A 0.000123384
125 *184:73 *734:B 2.07669e-05
126 *184:73 *758:S 7.98366e-06
127 *184:73 *512:8 0
128 *184:73 *599:211 0
129 *184:73 *647:92 2.26406e-05
130 *184:73 *647:101 0
131 *184:92 *722:A 1.16704e-05
132 *184:92 *758:S 2.61827e-06
133 *184:92 *959:RN 0
134 *184:92 *647:92 4.21607e-06
135 *184:104 *661:A 5.11574e-06
136 *184:104 *758:B 1.05415e-05
137 *184:104 *758:S 0
138 *184:104 *885:A 1.26998e-05
139 *184:104 *959:RN 2.68556e-05
140 *184:104 *1098:CK 7.15953e-05
141 *184:104 *246:10 0
142 *184:104 *538:10 1.83411e-06
143 *184:104 *599:236 2.61827e-06
144 *184:115 *885:A 2.39679e-06
145 *184:115 *897:A 1.72426e-05
146 *184:115 *246:10 0
147 *184:115 *586:12 0
148 *184:115 *599:236 7.15835e-06
149 *184:121 *891:B1 4.9678e-06
150 *184:121 *896:A2 1.32323e-05
151 *184:121 *897:A 0.000180316
152 *184:121 *246:10 0
153 *184:121 *599:238 0
154 *184:121 *649:89 0
155 *184:127 *874:A2 6.78899e-05
156 *184:127 *876:A2 0.000194194
157 *184:127 *878:A3 3.89326e-05
158 *184:127 *890:A3 9.49563e-06
159 *184:127 *599:238 0
160 *184:127 *633:341 0
161 *184:127 *649:89 0
162 *184:140 *878:A1 4.97191e-06
163 *184:140 *878:A2 8.8313e-06
164 *184:140 *1041:CK 2.05605e-05
165 *184:140 *600:185 2.75402e-05
166 *184:140 *649:44 2.16072e-07
167 *184:146 *778:A 0.000183802
168 *184:146 *779:S 2.08098e-06
169 *184:146 *785:S 0
170 *184:146 *875:A2 2.73419e-05
171 *184:146 *875:B1 8.75656e-06
172 *184:146 *877:A1 1.18301e-05
173 *184:146 *877:B2 0.000164522
174 *184:146 *188:106 0
175 *184:146 *599:238 0
176 *184:146 *600:170 4.40064e-06
177 *184:146 *600:185 1.04875e-05
178 *184:146 *625:41 0.000342708
179 *184:146 *648:12 4.51771e-06
180 *184:146 *648:105 2.39521e-05
181 *184:152 *930:A 5.14099e-05
182 *184:152 *625:41 2.90589e-05
183 *184:158 *922:B1 1.40196e-06
184 *184:158 *929:A2 8.26038e-06
185 *184:158 *930:A 9.36271e-05
186 *184:158 *309:22 4.44127e-06
187 *184:158 *625:41 1.46241e-05
188 *184:158 *625:43 9.52324e-06
189 *671:A1 *184:10 0
190 *671:A3 *184:10 3.61991e-05
191 *671:A4 *184:10 0.000144718
192 *702:A3 *184:50 3.83453e-06
193 *702:A3 *184:52 1.34578e-05
194 *722:B2 *722:B1 2.94435e-05
195 *831:S *953:A1 0
196 *869:A *184:50 3.44474e-05
197 *869:B *184:50 1.20766e-05
198 *885:B2 *184:115 0
199 *897:B2 *184:115 1.87931e-05
200 *918:B2 *918:B1 8.61595e-06
201 *918:B2 *184:73 9.57228e-06
202 *930:B2 *930:B1 2.52965e-06
203 *930:B2 *184:146 4.22174e-05
204 *930:B2 *184:152 3.02351e-05
205 *942:B2 *942:B1 1.55645e-05
206 *954:B2 *954:B1 2.39679e-06
207 *959:D *184:104 5.02897e-05
208 *966:D *721:A1 1.72405e-05
209 *969:D *184:50 1.75797e-05
210 *1021:D *953:A1 1.7644e-05
211 *1036:D *184:52 0
212 *1040:D *184:73 2.26406e-05
213 *1040:D *184:92 1.29982e-05
214 *1044:D *184:50 3.88456e-06
215 *1044:D *184:52 0
216 *1098:D *184:104 8.62472e-06
217 *1104:D *184:73 8.62655e-06
218 *151:10 *184:8 0
219 *154:8 *184:50 1.07428e-06
220 *157:16 *184:50 9.62051e-07
221 *157:77 *184:50 5.74951e-06
222 *183:23 *184:50 8.87096e-06
*RES
1 *689:ZN *184:8 21.1071 
2 *184:8 *184:10 51.8214 
3 *184:10 *184:16 21.6071 
4 *184:16 *942:B1 29.0357 
5 *184:16 *941:A1 29.25 
6 *184:8 *184:50 32.3572 
7 *184:50 *184:52 23.75 
8 *184:52 *917:A1 6.60714 
9 *184:52 *184:67 15.7143 
10 *184:67 *184:73 32.8929 
11 *184:73 *721:A1 21.1786 
12 *184:73 *184:92 13.3929 
13 *184:92 *184:104 33.1072 
14 *184:104 *885:B1 5 
15 *184:104 *184:115 12.3929 
16 *184:115 *184:121 16.6786 
17 *184:121 *184:127 29.25 
18 *184:127 *884:A1 11.3571 
19 *184:127 *184:140 13.75 
20 *184:140 *184:146 37.8929 
21 *184:146 *184:152 6 
22 *184:152 *184:158 11.4286 
23 *184:158 *929:A1 5 
24 *184:158 *953:A1 38.7143 
25 *184:152 *954:B1 11.6786 
26 *184:146 *930:B1 11.25 
27 *184:121 *896:A1 5 
28 *184:115 *897:B1 11.25 
29 *184:92 *722:B1 13.0357 
30 *184:67 *918:B1 11.8214 
*END

*D_NET *185 0.00125653
*CONN
*I *701:A3 I *D NOR3_X1
*I *709:A3 I *D NOR3_X1
*I *708:A3 I *D NOR3_X1
*I *693:A2 I *D NOR2_X1
*I *690:ZN O *D NAND2_X1
*CAP
1 *701:A3 4.16614e-05
2 *709:A3 6.47953e-06
3 *708:A3 9.04368e-05
4 *693:A2 1.54034e-05
5 *690:ZN 0
6 *185:16 0.000165057
7 *185:12 0.000139927
8 *185:4 0.000115893
9 *693:A2 *715:A1 9.22013e-06
10 *693:A2 *188:10 8.94068e-07
11 *693:A2 *205:16 5.49753e-06
12 *701:A3 *690:A1 5.50692e-06
13 *701:A3 *701:A2 7.16188e-07
14 *701:A3 *1181:A 0
15 *701:A3 *208:16 3.56012e-06
16 *708:A3 *690:A1 9.08808e-06
17 *708:A3 *708:A1 1.21774e-06
18 *708:A3 *715:A1 6.86569e-06
19 *708:A3 *1179:A 0.000104258
20 *708:A3 *1180:A 6.1421e-05
21 *708:A3 *205:16 2.93983e-06
22 *708:A3 *596:28 8.221e-06
23 *708:A3 *597:32 6.88612e-06
24 *708:A3 *639:28 6.85774e-07
25 *709:A3 *709:A2 5.33113e-06
26 *709:A3 *597:64 7.19036e-06
27 *185:12 *687:A2 1.66988e-05
28 *185:12 *690:A1 7.72792e-06
29 *185:12 *690:A2 1.75123e-05
30 *185:12 *203:25 2.19048e-07
31 *185:12 *208:16 4.59461e-06
32 *185:12 *595:77 2.22934e-05
33 *185:12 *632:14 5.49273e-05
34 *185:16 *597:57 5.75577e-05
35 *185:16 *597:64 3.41809e-05
36 *693:A1 *185:16 7.19036e-06
37 *714:A3 *693:A2 1.66988e-05
38 *714:A3 *708:A3 0.000103118
39 *717:A3 *709:A3 1.0303e-05
40 *717:A3 *185:16 7.72792e-06
41 *181:80 *185:12 0
42 *182:23 *185:16 8.14184e-05
*RES
1 *690:ZN *185:4 5 
2 *185:4 *185:12 19.8214 
3 *185:12 *185:16 14.25 
4 *185:16 *693:A2 12.2857 
5 *185:16 *708:A3 24.8929 
6 *185:12 *709:A3 6.25 
7 *185:4 *701:A3 10.2143 
*END

*D_NET *186 0.000619214
*CONN
*I *871:A3 I *D NOR3_X1
*I *692:A2 I *D NOR2_X1
*I *870:B I *D XNOR2_X1
*I *691:ZN O *D NAND2_X1
*CAP
1 *871:A3 2.54744e-05
2 *692:A2 0
3 *870:B 4.21102e-05
4 *691:ZN 4.3104e-05
5 *186:12 7.23171e-05
6 *186:10 9.87854e-05
7 *870:B *595:10 8.41155e-06
8 *870:B *595:12 1.0164e-05
9 *870:B *639:64 1.32348e-05
10 *871:A3 *235:26 1.43238e-06
11 *871:A3 *595:47 4.29713e-06
12 *871:A3 *639:64 7.72792e-06
13 *186:10 *906:B 2.89446e-05
14 *186:10 *594:58 2.08098e-06
15 *186:10 *639:64 0.000171597
16 *186:12 *595:47 2.64659e-06
17 *186:12 *639:64 3.07159e-05
18 *692:A1 *871:A3 0
19 *871:A1 *871:A3 1.27666e-06
20 *155:60 *186:10 5.48932e-05
*RES
1 *691:ZN *186:10 24.75 
2 *186:10 *186:12 3.25 
3 *186:12 *870:B 20.5714 
4 *186:12 *692:A2 5 
5 *186:10 *871:A3 8.35714 
*END

*D_NET *187 0.00049373
*CONN
*I *872:B I *D XNOR2_X1
*I *692:ZN O *D NOR2_X1
*CAP
1 *872:B 0.000183383
2 *692:ZN 0.000183383
3 *872:B *691:A1 0
4 *872:B *202:12 7.30645e-06
5 *872:B *235:26 3.19164e-07
6 *872:B *594:45 0
7 *872:B *595:10 5.69552e-06
8 *872:B *596:16 0
9 *872:B *596:22 1.40196e-06
10 *872:B *597:10 4.4274e-06
11 *872:B *639:50 0
12 *872:B *639:64 3.82997e-06
13 *692:A1 *872:B 3.28698e-05
14 *871:A1 *872:B 2.47526e-05
15 *871:A2 *872:B 2.99857e-05
16 *872:A *872:B 8.6468e-06
17 *969:D *872:B 7.72792e-06
*RES
1 *692:ZN *872:B 31.1429 
*END

*D_NET *188 0.0110548
*CONN
*I *913:A2 I *D AOI22_X1
*I *700:A2 I *D AOI22_X1
*I *887:A2 I *D AOI22_X1
*I *948:A2 I *D AOI22_X1
*I *877:A2 I *D AOI22_X1
*I *919:A2 I *D AOI22_X1
*I *904:A2 I *D AOI222_X1
*I *694:A2 I *D NAND2_X1
*I *939:A2 I *D AOI22_X1
*I *693:ZN O *D NOR2_X1
*CAP
1 *913:A2 0
2 *700:A2 0
3 *887:A2 0.000364266
4 *948:A2 0
5 *877:A2 0
6 *919:A2 0
7 *904:A2 7.60315e-06
8 *694:A2 0.000374709
9 *939:A2 0.000364051
10 *693:ZN 3.29233e-06
11 *188:134 0.000492994
12 *188:126 0.000443965
13 *188:106 0.000235463
14 *188:94 0.000313057
15 *188:87 8.47661e-05
16 *188:83 0.000605743
17 *188:64 0.000803352
18 *188:56 0.000793547
19 *188:14 0.000874104
20 *188:10 0.000419767
21 *694:A2 *906:B 6.59106e-06
22 *694:A2 *595:10 0
23 *694:A2 *639:64 6.59107e-06
24 *887:A2 *887:A1 2.17522e-05
25 *887:A2 *887:B1 4.44217e-05
26 *887:A2 *191:142 0.000120284
27 *887:A2 *193:142 2.47442e-06
28 *887:A2 *623:35 9.84059e-05
29 *904:A2 *759:B 1.26998e-05
30 *904:A2 *904:B1 5.86542e-06
31 *904:A2 *904:B2 2.39679e-06
32 *939:A2 *864:B 0
33 *939:A2 *939:A1 8.43215e-07
34 *939:A2 *940:A2 6.77477e-05
35 *939:A2 *940:A3 4.29063e-05
36 *939:A2 *206:18 7.74993e-06
37 *939:A2 *206:20 1.18589e-06
38 *939:A2 *619:18 0.000680763
39 *188:10 *205:16 1.99403e-06
40 *188:14 *226:14 2.11501e-05
41 *188:56 *226:14 1.34446e-05
42 *188:56 *226:61 5.03501e-05
43 *188:56 *227:127 0.000249414
44 *188:64 *759:B 2.61135e-05
45 *188:64 *904:B1 2.42518e-05
46 *188:64 *931:B2 6.37304e-05
47 *188:64 *191:29 1.87089e-05
48 *188:64 *193:38 0.000183867
49 *188:64 *193:65 5.43073e-05
50 *188:64 *212:22 0.000340002
51 *188:64 *212:32 2.89018e-05
52 *188:64 *603:85 1.18233e-06
53 *188:83 *919:A1 6.90107e-05
54 *188:83 *923:A1 1.96924e-05
55 *188:83 *935:A1 4.92995e-06
56 *188:83 *193:73 3.44907e-05
57 *188:83 *193:111 0.00114364
58 *188:83 *196:28 1.35645e-05
59 *188:83 *223:96 0
60 *188:83 *628:46 1.60257e-05
61 *188:83 *632:56 7.95943e-06
62 *188:87 *923:A4 7.19036e-06
63 *188:94 *919:B2 1.28122e-06
64 *188:94 *923:A4 9.72429e-05
65 *188:94 *929:A3 0
66 *188:94 *948:B1 9.74621e-06
67 *188:106 *785:A 0
68 *188:106 *819:S 9.15042e-05
69 *188:106 *877:A1 2.42701e-05
70 *188:106 *892:B1 1.21774e-06
71 *188:106 *929:A2 1.48912e-05
72 *188:106 *1073:CK 5.54348e-05
73 *188:106 *209:31 6.85774e-07
74 *188:106 *225:26 8.00929e-05
75 *188:106 *226:100 0
76 *188:106 *599:238 8.64238e-05
77 *188:106 *625:41 4.20358e-05
78 *188:106 *648:12 0.000113333
79 *188:106 *648:14 7.772e-05
80 *188:126 *913:A1 2.22476e-05
81 *188:126 *1176:A 1.74343e-07
82 *188:126 *191:29 7.29436e-06
83 *188:126 *193:20 6.07198e-06
84 *188:126 *208:20 2.07206e-05
85 *188:126 *208:22 7.92573e-05
86 *188:126 *216:126 0.000172342
87 *188:126 *226:61 1.04329e-05
88 *188:126 *227:127 7.9183e-05
89 *188:126 *603:124 1.64641e-05
90 *188:126 *603:137 2.22712e-05
91 *188:126 *603:148 3.87831e-06
92 *188:126 *627:16 5.40779e-05
93 *188:126 *631:55 7.79226e-05
94 *188:134 *700:A1 2.75346e-06
95 *188:134 *760:S 3.09411e-06
96 *188:134 *916:A2 0
97 *188:134 *918:A 0
98 *188:134 *962:RN 0
99 *188:134 *603:163 0
100 *188:134 *641:71 0
101 *693:A2 *188:10 8.94068e-07
102 *962:D *188:134 4.07742e-06
103 *1073:D *188:106 9.22998e-06
104 *183:23 *694:A2 2.61469e-06
105 *184:50 *694:A2 1.60244e-05
106 *184:52 *188:126 7.78555e-06
107 *184:52 *188:134 2.80734e-05
108 *184:67 *887:A2 4.16963e-06
109 *184:67 *188:134 1.05829e-05
110 *184:146 *188:106 0
*RES
1 *693:ZN *188:10 15.3571 
2 *188:10 *188:14 7.62 
3 *188:14 *939:A2 41.0471 
4 *188:14 *694:A2 36.2043 
5 *188:10 *188:56 11.55 
6 *188:56 *188:64 42.4286 
7 *188:64 *904:A2 6.25 
8 *188:64 *188:83 46.8714 
9 *188:83 *188:87 5.75 
10 *188:87 *919:A2 5 
11 *188:87 *188:94 9.75 
12 *188:94 *188:106 47.9643 
13 *188:106 *877:A2 5 
14 *188:94 *948:A2 5 
15 *188:56 *188:126 48.0686 
16 *188:126 *188:134 23.2143 
17 *188:134 *887:A2 42.1871 
18 *188:134 *700:A2 5 
19 *188:126 *913:A2 5 
*END

*D_NET *189 0.000126774
*CONN
*I *695:B I *D XNOR2_X1
*I *694:ZN O *D NAND2_X1
*CAP
1 *695:B 6.00538e-05
2 *694:ZN 6.00538e-05
3 *694:A1 *695:B 2.70833e-06
4 *906:S *695:B 3.95832e-06
5 *961:D *695:B 0
6 *971:D *695:B 0
7 *183:10 *695:B 0
*RES
1 *694:ZN *695:B 16.3929 
*END

*D_NET *190 0.0130256
*CONN
*I *876:A2 I *D AOI22_X1
*I *888:A2 I *D AOI22_X1
*I *698:A2 I *D AOI22_X1
*I *919:B1 I *D AOI22_X1
*I *949:A2 I *D AOI22_X1
*I *937:A2 I *D AOI22_X1
*I *910:A2 I *D AOI22_X1
*I *898:A2 I *D AOI222_X1
*I *696:ZN O *D NOR4_X2
*CAP
1 *876:A2 0.000123784
2 *888:A2 0
3 *698:A2 0.000114409
4 *919:B1 0.000113194
5 *949:A2 0.000160518
6 *937:A2 3.14763e-05
7 *910:A2 0.000286755
8 *898:A2 5.3581e-05
9 *696:ZN 0.000354133
10 *190:165 0.000413282
11 *190:142 0.000758041
12 *190:101 0.000367234
13 *190:97 0.000489642
14 *190:95 0.000496966
15 *190:40 0.00047564
16 *190:30 0.000409617
17 *190:22 0.000551702
18 *190:14 0.000550048
19 *190:6 0.000342028
20 *698:A2 *698:A1 7.24766e-06
21 *698:A2 *698:B2 1.93245e-05
22 *698:A2 *703:A1 3.0727e-06
23 *698:A2 *703:A2 4.12566e-07
24 *698:A2 *703:B1 2.90697e-06
25 *698:A2 *707:A1 7.72792e-06
26 *698:A2 *734:A 2.87703e-06
27 *698:A2 *734:B 1.11452e-06
28 *698:A2 *740:A 8.89598e-07
29 *698:A2 *758:S 2.75346e-06
30 *698:A2 *191:121 6.08888e-06
31 *698:A2 *191:142 1.43177e-06
32 *876:A2 *874:A2 6.91187e-06
33 *876:A2 *878:A3 0.000201744
34 *876:A2 *888:A1 4.97191e-06
35 *876:A2 *895:A4 4.87096e-06
36 *876:A2 *1041:CK 0
37 *876:A2 *203:35 5.34723e-05
38 *876:A2 *577:12 3.30857e-05
39 *876:A2 *599:238 2.64904e-06
40 *898:A2 *787:A 1.78013e-05
41 *898:A2 *898:B1 2.52965e-06
42 *898:A2 *898:C1 1.70037e-05
43 *898:A2 *258:24 8.50516e-05
44 *910:A2 *802:S 0.000209348
45 *910:A2 *898:B1 0.00015356
46 *910:A2 *908:A1 1.07471e-05
47 *910:A2 *908:B2 1.07471e-05
48 *910:A2 *199:65 7.07831e-05
49 *910:A2 *222:37 4.66497e-06
50 *910:A2 *232:38 3.13735e-05
51 *919:B1 *763:S 0
52 *919:B1 *951:A1 0
53 *919:B1 *951:B2 4.12796e-06
54 *919:B1 *627:47 0.000296772
55 *919:B1 *627:55 5.64879e-06
56 *937:A2 *936:B2 3.68589e-05
57 *937:A2 *205:125 2.30229e-05
58 *937:A2 *618:16 1.30597e-05
59 *949:A2 *763:A 0
60 *949:A2 *810:A 0
61 *949:A2 *819:S 5.46411e-05
62 *949:A2 *925:A1 0
63 *949:A2 *949:A1 4.77786e-06
64 *949:A2 *951:B1 1.21774e-06
65 *949:A2 *951:B2 3.67585e-05
66 *949:A2 *952:A2 1.4478e-06
67 *949:A2 *1039:CK 6.05817e-05
68 *949:A2 *191:82 1.17238e-05
69 *949:A2 *606:166 6.44217e-06
70 *949:A2 *616:68 8.47411e-05
71 *949:A2 *627:55 2.43548e-06
72 *190:14 *687:A1 2.84364e-06
73 *190:14 *715:A2 3.50137e-05
74 *190:14 *226:10 1.05397e-05
75 *190:14 *227:12 7.06741e-06
76 *190:14 *595:51 0.000119145
77 *190:14 *629:10 0.000154124
78 *190:14 *631:40 2.6375e-07
79 *190:22 *822:A 8.14241e-05
80 *190:22 *864:B 1.59118e-05
81 *190:22 *900:B1 7.87466e-06
82 *190:22 *1035:CK 1.87418e-05
83 *190:22 *224:10 2.04752e-05
84 *190:22 *227:12 3.94919e-05
85 *190:22 *229:10 1.1765e-05
86 *190:22 *262:10 0.000432501
87 *190:22 *555:10 4.88119e-05
88 *190:22 *632:70 2.87248e-06
89 *190:30 *815:S 0
90 *190:30 *829:A 4.24381e-05
91 *190:30 *829:B 0
92 *190:30 *843:B 9.57492e-07
93 *190:30 *846:A 1.72702e-05
94 *190:30 *900:C2 0
95 *190:30 *936:B2 2.42487e-05
96 *190:30 *938:B1 1.87369e-06
97 *190:30 *938:B2 6.66237e-05
98 *190:30 *1003:CK 5.74951e-06
99 *190:30 *208:36 4.35551e-06
100 *190:30 *229:10 1.3268e-05
101 *190:30 *232:14 5.60332e-07
102 *190:30 *262:10 0
103 *190:30 *531:8 0
104 *190:30 *547:8 4.95771e-05
105 *190:30 *602:114 7.86268e-05
106 *190:30 *616:45 0
107 *190:30 *628:16 4.12796e-06
108 *190:40 *846:A 0
109 *190:40 *901:A1 6.06068e-06
110 *190:40 *901:A2 8.33759e-07
111 *190:40 *901:B1 1.07287e-06
112 *190:40 *902:A4 7.54346e-07
113 *190:40 *936:B2 1.72426e-05
114 *190:40 *1006:CK 0.00012041
115 *190:40 *227:30 0
116 *190:40 *523:10 1.23839e-05
117 *190:40 *616:43 7.93896e-05
118 *190:40 *617:18 1.68489e-05
119 *190:40 *618:16 0.000140375
120 *190:95 *900:B1 0.000126754
121 *190:95 *227:79 4.85664e-05
122 *190:95 *232:14 7.11905e-07
123 *190:95 *602:114 1.27467e-05
124 *190:95 *605:96 2.14856e-06
125 *190:95 *632:70 1.86809e-06
126 *190:97 *826:A 9.3409e-06
127 *190:97 *826:B 0
128 *190:97 *826:S 7.77781e-06
129 *190:97 *934:B2 6.71372e-05
130 *190:97 *1038:CK 5.01004e-05
131 *190:97 *1208:A 0
132 *190:97 *191:80 0.000138232
133 *190:97 *191:82 3.65322e-06
134 *190:97 *222:121 2.39679e-06
135 *190:97 *227:79 2.10353e-05
136 *190:97 *227:91 0.000146784
137 *190:97 *605:96 4.61282e-05
138 *190:97 *605:111 0
139 *190:97 *606:191 3.73504e-05
140 *190:97 *632:56 4.68638e-06
141 *190:97 *637:78 5.89663e-05
142 *190:101 *770:B 3.71316e-05
143 *190:101 *191:82 2.1891e-05
144 *190:101 *222:121 1.68643e-06
145 *190:101 *606:191 1.19839e-05
146 *190:101 *627:55 1.26998e-05
147 *190:142 *697:A1 8.94068e-07
148 *190:142 *837:S 9.89573e-06
149 *190:142 *191:12 0.000197351
150 *190:142 *191:25 0.000106046
151 *190:142 *191:121 0.00050449
152 *190:142 *193:14 0
153 *190:142 *196:76 0.000437304
154 *190:142 *202:52 4.51744e-06
155 *190:142 *216:143 3.9783e-06
156 *190:142 *596:14 2.69048e-06
157 *190:142 *620:18 1.63465e-05
158 *190:165 *793:A 0
159 *190:165 *888:A1 4.44177e-05
160 *190:165 *888:B2 1.28122e-06
161 *190:165 *890:A4 6.99745e-06
162 *190:165 *1058:CK 7.72537e-06
163 *190:165 *196:76 4.46923e-05
164 *190:165 *196:95 0.000362911
165 *190:165 *202:52 5.79721e-05
166 *190:165 *203:35 9.99327e-05
167 *190:165 *601:65 1.36993e-05
168 *190:165 *601:71 0.00017926
169 *681:A1 *190:14 4.32298e-05
170 *739:A2 *190:14 5.35716e-05
171 *745:A2 *190:14 3.63265e-05
172 *1019:D *190:30 1.2245e-05
173 *1035:D *190:22 1.92742e-05
174 *1050:D *190:165 0.000117112
175 *1058:D *190:165 0
176 *173:21 *190:14 2.57414e-05
177 *173:32 *190:14 3.54847e-05
178 *178:113 *698:A2 0
179 *179:18 *190:14 1.65616e-05
180 *179:18 *190:22 1.33704e-05
181 *179:29 *190:14 4.48999e-05
182 *181:73 *949:A2 1.19839e-05
183 *184:127 *876:A2 0.000194194
*RES
1 *696:ZN *190:6 10 
2 *190:6 *190:14 48.8214 
3 *190:14 *190:22 44.1786 
4 *190:22 *190:30 39.6786 
5 *190:30 *190:40 30.5714 
6 *190:40 *898:A2 18.25 
7 *190:40 *910:A2 48.9871 
8 *190:30 *937:A2 14.3214 
9 *190:22 *190:95 20.1071 
10 *190:95 *190:97 53.25 
11 *190:97 *190:101 12.1786 
12 *190:101 *949:A2 35.5 
13 *190:101 *919:B1 31.5357 
14 *696:ZN *190:142 35.5171 
15 *190:142 *698:A2 25.7143 
16 *190:142 *190:165 39.7357 
17 *190:165 *888:A2 5 
18 *190:165 *876:A2 36.6429 
*END

*D_NET *191 0.0104846
*CONN
*I *875:A2 I *D AOI22_X1
*I *891:A2 I *D AOI22_X1
*I *698:B1 I *D AOI22_X1
*I *934:A2 I *D AOI22_X1
*I *943:A2 I *D AOI22_X1
*I *925:A2 I *D AOI22_X1
*I *904:B1 I *D AOI222_X1
*I *912:A2 I *D AOI22_X1
*I *697:ZN O *D NOR4_X2
*CAP
1 *875:A2 0.000232192
2 *891:A2 0
3 *698:B1 0
4 *934:A2 1.00028e-05
5 *943:A2 0.000159368
6 *925:A2 0
7 *904:B1 5.07183e-05
8 *912:A2 0.000107451
9 *697:ZN 9.99607e-05
10 *191:142 0.00060089
11 *191:121 0.000657649
12 *191:82 0.000299288
13 *191:80 0.000373512
14 *191:64 0.000299082
15 *191:62 0.000291052
16 *191:31 0.000286283
17 *191:29 0.000330348
18 *191:27 0.000330348
19 *191:25 0.00033697
20 *191:12 0.00025543
21 *875:A2 *785:A 0
22 *875:A2 *799:A 9.26213e-06
23 *875:A2 *799:B 0.000117243
24 *875:A2 *814:A 1.60077e-05
25 *875:A2 *814:S 4.76369e-06
26 *875:A2 *875:B1 1.77822e-05
27 *875:A2 *891:A1 3.35796e-05
28 *875:A2 *895:A1 0
29 *875:A2 *895:A3 3.98345e-05
30 *875:A2 *203:39 3.85828e-05
31 *875:A2 *562:8 4.96057e-05
32 *875:A2 *577:12 1.59966e-06
33 *875:A2 *600:185 5.20238e-07
34 *875:A2 *649:121 5.10087e-06
35 *904:B1 *759:A 7.72792e-06
36 *904:B1 *759:B 5.24655e-06
37 *904:B1 *904:B2 2.39679e-06
38 *904:B1 *223:43 9.01846e-07
39 *904:B1 *626:22 2.39679e-06
40 *904:B1 *626:31 2.08307e-05
41 *912:A2 *809:A 0
42 *912:A2 *816:A 0.000107163
43 *912:A2 *816:S 6.00464e-06
44 *912:A2 *830:A 7.66691e-06
45 *912:A2 *912:B1 0
46 *912:A2 *271:18 0.000251244
47 *912:A2 *548:10 2.73294e-05
48 *912:A2 *564:10 5.1189e-05
49 *912:A2 *620:14 2.39419e-05
50 *934:A2 *934:A1 6.48216e-07
51 *934:A2 *632:56 2.16072e-07
52 *934:A2 *632:64 6.48216e-07
53 *943:A2 *775:S 7.19036e-06
54 *943:A2 *925:A1 4.97191e-06
55 *943:A2 *943:B1 4.24402e-05
56 *943:A2 *947:A1 6.84316e-05
57 *943:A2 *1039:CK 0.000110748
58 *943:A2 *606:145 1.05133e-05
59 *943:A2 *628:88 0
60 *191:12 *697:A1 2.05723e-05
61 *191:12 *699:A2 1.93861e-05
62 *191:29 *759:A 3.90598e-05
63 *191:29 *855:A 9.21323e-05
64 *191:29 *855:B 7.38533e-06
65 *191:29 *879:A1 2.89018e-05
66 *191:29 *931:B2 1.33704e-05
67 *191:29 *1012:CK 2.0122e-05
68 *191:29 *1176:A 2.85965e-05
69 *191:29 *193:38 0.000787892
70 *191:29 *208:20 0.000129382
71 *191:29 *208:22 4.26469e-05
72 *191:29 *513:10 3.71527e-05
73 *191:29 *545:10 3.04186e-05
74 *191:29 *600:77 9.14313e-06
75 *191:29 *603:124 4.12796e-06
76 *191:29 *631:55 1.01298e-05
77 *191:29 *641:10 6.67494e-05
78 *191:29 *641:19 5.05854e-05
79 *191:62 *759:A 5.50692e-06
80 *191:62 *759:B 3.09411e-06
81 *191:62 *848:A 3.46186e-05
82 *191:62 *848:B 3.83757e-05
83 *191:62 *848:S 4.92863e-06
84 *191:62 *920:A2 5.98719e-06
85 *191:62 *920:B1 2.0055e-06
86 *191:62 *1043:CK 0
87 *191:62 *223:60 9.34405e-05
88 *191:62 *224:40 8.43215e-07
89 *191:62 *231:31 0
90 *191:62 *231:60 0
91 *191:62 *233:27 2.84765e-06
92 *191:62 *233:48 2.20333e-05
93 *191:62 *607:82 1.15685e-06
94 *191:62 *628:52 7.63742e-06
95 *191:64 *845:A 0.000118829
96 *191:64 *291:14 4.9182e-05
97 *191:64 *607:80 9.88063e-05
98 *191:64 *607:82 2.59821e-06
99 *191:64 *628:52 6.73306e-05
100 *191:80 *710:A1 7.91353e-06
101 *191:80 *710:B1 0
102 *191:80 *710:B2 0
103 *191:80 *756:A 6.82202e-07
104 *191:80 *1008:CK 6.0406e-05
105 *191:80 *227:79 2.45903e-05
106 *191:80 *227:91 0.00016977
107 *191:80 *227:100 3.32258e-05
108 *191:80 *291:14 1.77822e-05
109 *191:80 *607:80 7.92991e-05
110 *191:80 *628:52 8.34049e-06
111 *191:80 *628:88 0
112 *191:80 *632:64 4.16464e-05
113 *191:82 *838:A 1.37423e-05
114 *191:82 *925:A1 2.75346e-06
115 *191:82 *925:B1 2.14856e-06
116 *191:82 *925:B2 2.23871e-06
117 *191:82 *928:A2 7.51151e-06
118 *191:82 *1039:CK 8.26038e-06
119 *191:82 *222:121 7.72537e-06
120 *191:82 *227:100 7.72537e-06
121 *191:82 *628:88 0
122 *191:121 *698:A1 0.000132916
123 *191:121 *698:B2 9.2413e-05
124 *191:121 *721:A2 1.46667e-07
125 *191:121 *740:A 6.25834e-07
126 *191:121 *202:52 6.87288e-05
127 *191:121 *607:165 5.09172e-06
128 *191:142 *698:A1 7.72537e-06
129 *191:142 *721:A2 2.43548e-06
130 *191:142 *814:S 5.69015e-05
131 *191:142 *887:B1 0.000368303
132 *191:142 *599:238 1.13993e-06
133 *698:A2 *191:121 6.08888e-06
134 *698:A2 *191:142 1.43177e-06
135 *887:A2 *191:142 0.000120284
136 *904:A2 *904:B1 5.86542e-06
137 *949:A2 *191:82 1.17238e-05
138 *1012:D *912:A2 0.000143642
139 *1039:D *943:A2 1.06934e-05
140 *1065:D *875:A2 0
141 *178:115 *875:A2 1.28987e-05
142 *181:31 *191:62 7.25006e-06
143 *181:73 *943:A2 0
144 *181:90 *191:12 1.74267e-05
145 *181:90 *191:25 1.3787e-05
146 *181:90 *191:121 4.0767e-05
147 *184:146 *875:A2 2.73419e-05
148 *188:64 *904:B1 2.42518e-05
149 *188:64 *191:29 1.87089e-05
150 *188:126 *191:29 7.29436e-06
151 *190:97 *191:80 0.000138232
152 *190:97 *191:82 3.65322e-06
153 *190:101 *191:82 2.1891e-05
154 *190:142 *191:12 0.000197351
155 *190:142 *191:25 0.000106046
156 *190:142 *191:121 0.00050449
*RES
1 *697:ZN *191:12 20.7629 
2 *191:12 *912:A2 35.8214 
3 *191:12 *191:25 2.52 
4 *191:25 *191:27 5 
5 *191:27 *191:29 56.3572 
6 *191:29 *191:31 5 
7 *191:31 *904:B1 11.4286 
8 *191:31 *191:62 43.5357 
9 *191:62 *191:64 12.4643 
10 *191:64 *191:80 41.3572 
11 *191:80 *191:82 16.25 
12 *191:82 *925:A2 5 
13 *191:82 *943:A2 35.8214 
14 *191:64 *934:A2 10.75 
15 *191:25 *191:121 32.9386 
16 *191:121 *698:B1 5 
17 *191:121 *191:142 38.9386 
18 *191:142 *891:A2 5 
19 *191:142 *875:A2 45.2857 
*END

*D_NET *192 0.00026197
*CONN
*I *707:A1 I *D NAND4_X1
*I *698:ZN O *D AOI22_X1
*CAP
1 *707:A1 8.84642e-05
2 *698:ZN 8.84642e-05
3 *707:A1 *686:A 0
4 *707:A1 *698:A1 2.73644e-05
5 *707:A1 *707:A2 1.21774e-06
6 *707:A1 *721:A2 3.54991e-05
7 *707:A1 *724:B 1.32323e-05
8 *707:A1 *734:A 0
9 *698:A2 *707:A1 7.72792e-06
*RES
1 *698:ZN *707:A1 21.6071 
*END

*D_NET *193 0.0109047
*CONN
*I *887:B1 I *D AOI22_X1
*I *700:B1 I *D AOI22_X1
*I *914:A2 I *D AOI22_X1
*I *951:A2 I *D AOI22_X1
*I *925:B1 I *D AOI22_X1
*I *903:A2 I *D AOI222_X1
*I *938:A2 I *D AOI22_X1
*I *879:A2 I *D AOI22_X1
*I *699:ZN O *D NOR4_X2
*CAP
1 *887:B1 0.000270257
2 *700:B1 1.5401e-05
3 *914:A2 0
4 *951:A2 2.26524e-05
5 *925:B1 4.66742e-05
6 *903:A2 0
7 *938:A2 0.000214457
8 *879:A2 5.91008e-05
9 *699:ZN 0.000270701
10 *193:142 0.000365408
11 *193:113 0.000113122
12 *193:111 0.000602744
13 *193:73 0.000652892
14 *193:65 0.00104636
15 *193:42 0.000120846
16 *193:38 0.000316605
17 *193:32 0.000356933
18 *193:20 0.00010151
19 *193:14 0.000398866
20 *700:B1 *623:10 5.6231e-06
21 *879:A2 *879:B2 9.61797e-06
22 *879:A2 *196:20 2.46462e-05
23 *879:A2 *216:69 1.88334e-06
24 *879:A2 *225:12 8.76325e-06
25 *879:A2 *225:20 2.76814e-05
26 *887:B1 *814:S 3.67192e-05
27 *887:B1 *620:18 0.000175674
28 *925:B1 *925:A1 3.09143e-06
29 *925:B1 *925:B2 2.75765e-05
30 *925:B1 *928:A2 1.10536e-05
31 *925:B1 *226:110 0.000128907
32 *925:B1 *286:8 0.000129992
33 *938:A2 *815:S 0
34 *938:A2 *903:B1 6.52684e-06
35 *938:A2 *903:B2 9.55318e-06
36 *938:A2 *936:B1 3.104e-05
37 *938:A2 *938:A1 2.39679e-06
38 *938:A2 *938:B2 1.27666e-06
39 *938:A2 *940:A3 0.000174155
40 *938:A2 *206:18 0.000182345
41 *938:A2 *292:12 2.21085e-05
42 *938:A2 *618:16 0.000296177
43 *951:A2 *763:S 1.94214e-06
44 *951:A2 *951:A1 2.06237e-05
45 *193:14 *699:A4 1.16229e-06
46 *193:14 *760:S 1.50581e-06
47 *193:14 *271:18 6.24354e-05
48 *193:14 *596:10 0
49 *193:14 *620:18 9.68603e-07
50 *193:20 *788:A 2.88568e-05
51 *193:20 *913:B2 1.19994e-05
52 *193:20 *202:48 3.98975e-07
53 *193:20 *216:126 6.17734e-06
54 *193:20 *270:20 0
55 *193:32 *788:A 2.96755e-05
56 *193:32 *914:A1 3.24839e-05
57 *193:32 *914:B2 1.21838e-05
58 *193:32 *1012:CK 7.72537e-06
59 *193:32 *216:126 1.00408e-05
60 *193:32 *540:8 1.91498e-06
61 *193:38 *879:A1 2.94435e-05
62 *193:38 *1012:CK 3.6905e-06
63 *193:38 *195:16 0.000162934
64 *193:38 *603:85 5.8096e-07
65 *193:38 *603:96 8.20753e-06
66 *193:38 *603:111 1.54983e-05
67 *193:38 *603:137 1.23516e-06
68 *193:42 *879:B2 5.00262e-07
69 *193:42 *212:32 1.18907e-05
70 *193:42 *225:20 1.45884e-05
71 *193:65 *603:85 0.000156982
72 *193:73 *659:A 4.15904e-06
73 *193:73 *864:B 8.66067e-05
74 *193:73 *903:B1 2.70813e-05
75 *193:73 *227:127 1.18569e-05
76 *193:73 *232:113 0
77 *193:73 *628:46 0
78 *193:111 *919:B2 0.000119316
79 *193:111 *948:B1 0.000166297
80 *193:111 *226:110 2.92044e-06
81 *193:111 *232:113 0
82 *193:111 *232:132 0
83 *193:111 *581:10 7.29628e-06
84 *193:111 *627:43 0.000115595
85 *193:111 *627:47 8.47699e-06
86 *193:113 *226:110 0.000246622
87 *193:113 *286:8 0.000230172
88 *193:113 *627:47 1.61002e-06
89 *193:142 *760:S 1.6861e-05
90 *193:142 *271:18 0.000190759
91 *193:142 *623:35 2.25871e-06
92 *887:A2 *887:B1 4.44217e-05
93 *887:A2 *193:142 2.47442e-06
94 *941:A1 *938:A2 3.62039e-05
95 *941:A1 *193:73 5.2854e-05
96 *1028:D *193:38 2.31685e-05
97 *178:62 *879:A2 0
98 *188:64 *193:38 0.000183867
99 *188:64 *193:65 5.43073e-05
100 *188:83 *193:73 3.44907e-05
101 *188:83 *193:111 0.00114364
102 *188:126 *193:20 6.07198e-06
103 *190:142 *193:14 0
104 *191:29 *193:38 0.000787892
105 *191:82 *925:B1 2.14856e-06
106 *191:142 *887:B1 0.000368303
*RES
1 *699:ZN *193:14 25.2671 
2 *193:14 *193:20 10.0714 
3 *193:20 *193:32 17.3571 
4 *193:32 *193:38 49.4286 
5 *193:38 *193:42 6.75 
6 *193:42 *879:A2 23.0714 
7 *193:42 *193:65 18.6429 
8 *193:65 *193:73 23.24 
9 *193:73 *938:A2 48.6429 
10 *193:73 *903:A2 10 
11 *193:65 *193:111 40.5143 
12 *193:111 *193:113 13.1429 
13 *193:113 *925:B1 19.7857 
14 *193:113 *951:A2 12.25 
15 *193:20 *914:A2 10 
16 *193:14 *193:142 4.41 
17 *193:142 *700:B1 16.6071 
18 *193:142 *887:B1 30.12 
*END

*D_NET *194 0.000190141
*CONN
*I *707:A2 I *D NAND4_X1
*I *700:ZN O *D AOI22_X1
*CAP
1 *707:A2 5.70799e-05
2 *700:ZN 5.70799e-05
3 *707:A2 *686:A 0
4 *707:A2 *700:A1 2.57504e-05
5 *707:A2 *700:B2 4.90133e-05
6 *707:A2 *734:A 0
7 *707:A2 *916:A2 0
8 *707:A2 *195:44 0
9 *707:A1 *707:A2 1.21774e-06
10 *917:A1 *707:A2 0
*RES
1 *700:ZN *707:A2 18.1071 
*END

*D_NET *195 0.00341404
*CONN
*I *1181:A I *D BUF_X2
*I *912:B1 I *D AOI22_X1
*I *891:B1 I *D AOI22_X1
*I *703:A2 I *D AOI22_X1
*I *701:ZN O *D NOR3_X1
*CAP
1 *1181:A 2.24353e-05
2 *912:B1 0.000163037
3 *891:B1 0.0003181
4 *703:A2 2.15418e-05
5 *701:ZN 8.71307e-06
6 *195:44 0.000638451
7 *195:16 0.000693014
8 *195:6 0.000262317
9 *703:A2 *703:A1 2.4921e-05
10 *703:A2 *835:S 5.98561e-06
11 *891:B1 *682:B 7.72792e-06
12 *891:B1 *703:A1 1.63684e-06
13 *891:B1 *703:B2 1.06478e-05
14 *891:B1 *835:S 0.000190934
15 *891:B1 *890:A1 4.05349e-05
16 *891:B1 *891:B2 2.75346e-06
17 *891:B1 *895:A1 3.23723e-07
18 *891:B1 *896:A2 2.44426e-06
19 *891:B1 *896:A3 1.23562e-06
20 *891:B1 *255:14 0
21 *891:B1 *552:12 5.43491e-06
22 *891:B1 *578:10 3.85541e-05
23 *891:B1 *601:57 7.80204e-05
24 *891:B1 *647:68 0
25 *891:B1 *647:79 0
26 *912:B1 *816:A 0
27 *912:B1 *913:A1 1.93879e-05
28 *912:B1 *1036:CK 1.53342e-05
29 *912:B1 *202:27 1.58475e-05
30 *912:B1 *508:10 2.37117e-05
31 *912:B1 *564:10 0
32 *912:B1 *603:137 1.27404e-06
33 *912:B1 *603:148 1.11958e-06
34 *1181:A *597:18 3.58094e-06
35 *1181:A *639:28 0
36 *195:6 *639:28 0
37 *195:16 *830:A 3.69343e-05
38 *195:16 *202:27 2.82739e-05
39 *195:16 *203:29 0.000125522
40 *195:16 *603:111 4.71752e-06
41 *195:16 *603:137 5.51369e-06
42 *195:16 *631:55 0
43 *195:16 *633:240 5.1203e-06
44 *195:44 *686:A 6.28148e-05
45 *195:44 *686:B 0
46 *195:44 *698:B2 6.62888e-05
47 *195:44 *700:B2 0
48 *195:44 *703:A1 5.50692e-06
49 *195:44 *703:B1 7.72537e-06
50 *195:44 *703:B2 2.25089e-06
51 *195:44 *707:A3 1.09703e-05
52 *195:44 *721:A2 2.55331e-06
53 *195:44 *740:A 9.08e-06
54 *195:44 *914:A1 3.59015e-05
55 *195:44 *914:B1 1.15993e-06
56 *195:44 *914:B2 0
57 *195:44 *916:A3 4.69857e-05
58 *195:44 *916:A4 2.99396e-05
59 *195:44 *202:27 3.36239e-05
60 *195:44 *202:48 2.24327e-06
61 *195:44 *274:14 0
62 *195:44 *476:8 1.15721e-05
63 *195:44 *540:8 2.35353e-05
64 *195:44 *584:6 2.90423e-05
65 *698:A2 *703:A2 4.12566e-07
66 *701:A1 *1181:A 6.38328e-07
67 *701:A3 *1181:A 0
68 *707:A2 *195:44 0
69 *912:A2 *912:B1 0
70 *1010:D *891:B1 3.83757e-05
71 *1012:D *912:B1 0
72 *1012:D *195:16 0
73 *178:113 *703:A2 4.12566e-07
74 *181:109 *891:B1 0
75 *184:121 *891:B1 4.9678e-06
76 *193:38 *195:16 0.000162934
*RES
1 *701:ZN *195:6 5.92857 
2 *195:6 *195:16 33.75 
3 *195:16 *195:44 45.3214 
4 *195:44 *703:A2 17.3571 
5 *195:44 *891:B1 47.9643 
6 *195:16 *912:B1 27.5714 
7 *195:6 *1181:A 7.85714 
*END

*D_NET *196 0.00908379
*CONN
*I *893:A2 I *D AOI22_X1
*I *922:A2 I *D AOI22_X1
*I *943:B1 I *D AOI22_X1
*I *703:B1 I *D AOI22_X1
*I *914:B1 I *D AOI22_X1
*I *882:B1 I *D AOI22_X1
*I *931:A2 I *D AOI22_X1
*I *900:B1 I *D AOI222_X1
*I *702:ZN O *D NOR4_X2
*CAP
1 *893:A2 0
2 *922:A2 0
3 *943:B1 0.000169164
4 *703:B1 1.8668e-05
5 *914:B1 1.62492e-05
6 *882:B1 2.7172e-05
7 *931:A2 1.47348e-05
8 *900:B1 0.000203556
9 *702:ZN 0.000133351
10 *196:105 0.000325747
11 *196:103 0.000437487
12 *196:95 0.000768838
13 *196:76 0.000686381
14 *196:59 0.000235937
15 *196:28 0.000386198
16 *196:20 0.000338684
17 *196:12 0.000469038
18 *196:8 0.000473817
19 *703:B1 *703:B2 7.72537e-06
20 *882:B1 *882:A1 1.21774e-06
21 *882:B1 *882:B2 5.2678e-05
22 *882:B1 *621:25 4.56614e-05
23 *900:B1 *783:A 0
24 *900:B1 *832:A 1.18232e-06
25 *900:B1 *1035:CK 5.82556e-05
26 *900:B1 *225:80 5.1203e-06
27 *900:B1 *262:10 0
28 *900:B1 *602:110 1.88334e-06
29 *900:B1 *605:96 1.94561e-05
30 *900:B1 *629:20 9.15658e-06
31 *900:B1 *633:48 2.29834e-05
32 *900:B1 *633:52 9.91109e-06
33 *900:B1 *633:56 8.43215e-07
34 *900:B1 *633:63 3.4944e-05
35 *914:B1 *914:B2 8.43215e-07
36 *914:B1 *274:14 2.1988e-06
37 *931:A2 *931:B1 2.16072e-07
38 *931:A2 *931:B2 1.28122e-06
39 *931:A2 *231:27 1.73125e-05
40 *943:B1 *775:A 8.99697e-05
41 *943:B1 *775:S 0
42 *943:B1 *922:B2 1.36811e-05
43 *943:B1 *645:89 0
44 *196:8 *788:B 3.76691e-05
45 *196:8 *202:27 0
46 *196:8 *234:41 1.70528e-05
47 *196:8 *274:14 1.0236e-05
48 *196:8 *641:23 8.06163e-06
49 *196:12 *788:A 5.39364e-05
50 *196:12 *980:CK 0.000215352
51 *196:12 *216:126 5.33967e-05
52 *196:12 *270:20 0
53 *196:12 *640:10 6.63045e-05
54 *196:12 *640:14 6.49269e-05
55 *196:20 *827:A 5.62939e-05
56 *196:20 *882:B2 4.17545e-05
57 *196:20 *216:69 6.5385e-05
58 *196:20 *225:12 5.68463e-07
59 *196:20 *507:14 2.89018e-05
60 *196:20 *603:85 4.61052e-05
61 *196:20 *621:25 9.5114e-05
62 *196:28 *832:A 2.37916e-06
63 *196:28 *931:A1 1.36822e-05
64 *196:28 *935:A1 9.47496e-05
65 *196:28 *935:A4 0.000144557
66 *196:28 *225:80 0
67 *196:28 *507:14 3.18502e-05
68 *196:28 *603:83 2.60427e-05
69 *196:28 *603:85 0.000176269
70 *196:28 *637:25 0.000143781
71 *196:59 *788:A 8.48059e-05
72 *196:59 *202:48 4.16213e-06
73 *196:59 *270:20 0
74 *196:76 *788:A 7.95923e-06
75 *196:76 *835:S 3.04286e-05
76 *196:76 *202:48 5.36441e-07
77 *196:76 *216:143 0.000121834
78 *196:95 *814:S 8.49766e-05
79 *196:95 *835:S 1.17127e-05
80 *196:95 *890:A4 9.46434e-06
81 *196:95 *893:A1 0.000107166
82 *196:95 *202:52 4.28062e-05
83 *196:95 *546:8 1.97009e-05
84 *196:95 *620:18 3.3881e-05
85 *196:103 *779:S 0
86 *196:103 *841:A 1.53357e-05
87 *196:103 *841:B 0.000307653
88 *196:103 *842:A 1.61249e-06
89 *196:103 *842:S 0.000119616
90 *196:103 *893:A1 1.77822e-05
91 *196:103 *1065:CK 0
92 *196:103 *253:12 6.84298e-06
93 *196:103 *648:105 0
94 *196:105 *775:S 0
95 *196:105 *779:S 0
96 *196:105 *963:CK 0
97 *196:105 *645:89 0
98 *698:A2 *703:B1 2.90697e-06
99 *806:S *196:95 3.76527e-05
100 *806:S *196:103 0.000133405
101 *807:S *196:95 8.89221e-05
102 *879:A2 *196:20 2.46462e-05
103 *943:A2 *943:B1 4.24402e-05
104 *965:D *196:105 0
105 *1002:D *196:103 3.50282e-05
106 *1022:D *196:28 2.89018e-05
107 *1033:D *196:12 3.95126e-06
108 *1078:D *196:28 1.75331e-05
109 *178:70 *196:20 4.18985e-05
110 *178:113 *703:B1 3.24409e-07
111 *188:83 *196:28 1.35645e-05
112 *190:22 *900:B1 7.87466e-06
113 *190:95 *900:B1 0.000126754
114 *190:142 *196:76 0.000437304
115 *190:165 *196:76 4.46923e-05
116 *190:165 *196:95 0.000362911
117 *195:44 *703:B1 7.72537e-06
118 *195:44 *914:B1 1.15993e-06
*RES
1 *702:ZN *196:8 24.25 
2 *196:8 *196:12 41.2143 
3 *196:12 *196:20 25.9286 
4 *196:20 *196:28 35.9286 
5 *196:28 *900:B1 41.4286 
6 *196:20 *931:A2 11.75 
7 *196:12 *882:B1 10.25 
8 *196:8 *196:59 5 
9 *196:59 *914:B1 11.6786 
10 *196:59 *196:76 16.5986 
11 *196:76 *703:B1 16.9286 
12 *196:76 *196:95 32.7857 
13 *196:95 *196:103 40.6607 
14 *196:103 *196:105 15.5179 
15 *196:105 *943:B1 30.6072 
16 *196:105 *922:A2 10 
17 *196:95 *893:A2 10 
*END

*D_NET *197 0.000306081
*CONN
*I *707:A3 I *D NAND4_X1
*I *703:ZN O *D AOI22_X1
*CAP
1 *707:A3 0.000106761
2 *703:ZN 0.000106761
3 *707:A3 *686:A 0
4 *707:A3 *698:B2 4.47212e-05
5 *707:A3 *721:A2 3.62289e-05
6 *707:A3 *576:6 6.38328e-07
7 *195:44 *707:A3 1.09703e-05
*RES
1 *703:ZN *707:A3 22.4643 
*END

*D_NET *198 0.000263205
*CONN
*I *1180:A I *D BUF_X1
*I *704:ZN O *D NOR4_X1
*CAP
1 *1180:A 5.19165e-05
2 *704:ZN 5.19165e-05
3 *1180:A *596:28 5.42306e-05
4 *1180:A *639:28 4.79202e-06
5 *701:A1 *1180:A 2.63261e-05
6 *704:A3 *1180:A 1.26019e-05
7 *708:A3 *1180:A 6.1421e-05
*RES
1 *704:ZN *1180:A 27.6429 
*END

*D_NET *199 0.0105481
*CONN
*I *874:A2 I *D AOI22_X1
*I *888:B1 I *D AOI22_X1
*I *908:A2 I *D AOI22_X1
*I *938:B1 I *D AOI22_X1
*I *898:B1 I *D AOI222_X1
*I *926:A2 I *D AOI22_X1
*I *950:B1 I *D AOI22_X1
*I *706:B1 I *D AOI22_X1
*I *705:ZN O *D NOR4_X2
*CAP
1 *874:A2 9.93819e-05
2 *888:B1 0
3 *908:A2 2.72007e-05
4 *938:B1 0.000142628
5 *898:B1 0.000147605
6 *926:A2 4.80964e-05
7 *950:B1 0
8 *706:B1 2.39216e-05
9 *705:ZN 0.000667467
10 *199:116 0.000219362
11 *199:65 0.000518736
12 *199:63 0.000734125
13 *199:48 0.000935957
14 *199:37 0.000514535
15 *199:33 0.000382948
16 *199:27 0.000684823
17 *199:12 0.00097838
18 *706:B1 *706:A1 8.43215e-07
19 *706:B1 *706:B2 2.39679e-06
20 *706:B1 *736:A 8.64488e-06
21 *706:B1 *607:112 4.82355e-06
22 *706:B1 *627:16 2.61827e-06
23 *706:B1 *631:66 1.86809e-06
24 *874:A2 *878:A1 1.94663e-05
25 *874:A2 *878:A3 1.61002e-06
26 *874:A2 *878:A4 4.29819e-05
27 *874:A2 *888:A1 3.09143e-06
28 *874:A2 *633:341 0
29 *874:A2 *649:44 1.63647e-05
30 *898:B1 *802:S 4.45156e-05
31 *898:B1 *898:B2 1.6614e-05
32 *898:B1 *898:C1 7.72792e-06
33 *898:B1 *898:C2 7.42935e-06
34 *898:B1 *901:B1 0.00019645
35 *898:B1 *634:50 7.01128e-06
36 *908:A2 *908:A1 5.41497e-05
37 *908:A2 *911:A1 0
38 *908:A2 *911:A2 4.1155e-05
39 *908:A2 *270:14 4.04557e-06
40 *908:A2 *626:33 7.54346e-07
41 *908:A2 *636:100 0
42 *926:A2 *784:S 0
43 *926:A2 *604:101 0
44 *926:A2 *627:71 3.09411e-06
45 *938:B1 *846:A 7.30979e-06
46 *938:B1 *846:B 0.000155602
47 *938:B1 *846:S 2.85655e-06
48 *938:B1 *938:A1 3.09143e-06
49 *938:B1 *938:B2 2.75346e-06
50 *938:B1 *258:24 5.14203e-05
51 *938:B1 *260:18 1.98806e-05
52 *938:B1 *605:53 4.99729e-05
53 *199:12 *205:37 3.21635e-05
54 *199:12 *205:54 2.49539e-05
55 *199:12 *208:16 0.00027564
56 *199:12 *227:142 4.64685e-05
57 *199:12 *556:14 7.41034e-05
58 *199:12 *599:104 2.15022e-05
59 *199:12 *631:40 0.000188955
60 *199:27 *227:142 6.52895e-05
61 *199:27 *245:12 1.8558e-06
62 *199:33 *764:S 1.03094e-05
63 *199:33 *765:B 0.000104334
64 *199:33 *772:A 0
65 *199:33 *772:B 0.000133655
66 *199:33 *792:S 4.27112e-05
67 *199:33 *793:A 0
68 *199:33 *793:S 7.34988e-06
69 *199:33 *978:CK 0
70 *199:33 *1057:CK 0
71 *199:33 *222:111 2.27416e-06
72 *199:33 *222:121 2.22337e-06
73 *199:33 *601:77 0
74 *199:33 *601:81 0
75 *199:33 *648:48 0
76 *199:37 *772:A 0
77 *199:37 *216:104 0.000342704
78 *199:37 *222:121 1.25429e-05
79 *199:37 *232:132 0
80 *199:37 *604:74 0.000147093
81 *199:37 *604:76 0.000106082
82 *199:48 *868:B 0
83 *199:48 *928:A4 0
84 *199:48 *950:A1 2.52965e-06
85 *199:48 *950:B2 2.75346e-06
86 *199:48 *951:A1 1.36877e-05
87 *199:48 *952:A3 2.25658e-05
88 *199:48 *223:83 0
89 *199:48 *227:106 0
90 *199:48 *543:8 2.43524e-05
91 *199:48 *604:76 1.19015e-05
92 *199:48 *604:101 0
93 *199:48 *606:58 5.71421e-06
94 *199:48 *606:174 0
95 *199:63 *222:37 3.99062e-05
96 *199:63 *222:64 9.21861e-05
97 *199:63 *624:12 4.37882e-05
98 *199:63 *624:38 0.000464283
99 *199:63 *624:71 0.000107976
100 *199:65 *802:S 6.4022e-05
101 *199:65 *901:B1 0.000539882
102 *199:65 *222:37 3.13008e-05
103 *199:65 *232:38 6.99185e-06
104 *199:65 *617:24 1.8558e-06
105 *199:65 *624:12 1.67933e-05
106 *199:116 *888:A1 1.75851e-05
107 *199:116 *888:B2 4.38852e-05
108 *199:116 *978:CK 1.03094e-05
109 *199:116 *245:12 1.16171e-05
110 *199:116 *246:10 2.24634e-06
111 *199:116 *649:27 1.11258e-05
112 *876:A2 *874:A2 6.91187e-06
113 *898:A2 *898:B1 2.52965e-06
114 *910:A2 *898:B1 0.00015356
115 *910:A2 *199:65 7.07831e-05
116 *1006:D *938:B1 1.48183e-05
117 *1013:D *199:48 2.77342e-05
118 *1015:D *199:48 1.57711e-05
119 *1045:D *199:48 4.90744e-05
120 *1057:D *199:33 0
121 *155:10 *199:12 0
122 *155:12 *199:12 0
123 *155:47 *199:12 0
124 *181:90 *199:12 0
125 *184:127 *874:A2 6.78899e-05
126 *190:30 *938:B1 1.87369e-06
*RES
1 *705:ZN *199:12 47.2 
2 *199:12 *706:B1 17.8214 
3 *199:12 *199:27 10.71 
4 *199:27 *199:33 38 
5 *199:33 *199:37 25.5357 
6 *199:37 *950:B1 5 
7 *199:37 *199:48 49.7143 
8 *199:48 *926:A2 14.3929 
9 *199:48 *199:63 27.26 
10 *199:63 *199:65 13.02 
11 *199:65 *898:B1 25.4343 
12 *199:65 *938:B1 34.3214 
13 *199:63 *908:A2 19.3929 
14 *199:27 *199:116 19.6986 
15 *199:116 *888:B1 5 
16 *199:116 *874:A2 28.3214 
*END

*D_NET *200 0.000619269
*CONN
*I *707:A4 I *D NAND4_X1
*I *706:ZN O *D AOI22_X1
*CAP
1 *707:A4 0.000192848
2 *706:ZN 0.000192848
3 *707:A4 *706:B2 1.15841e-05
4 *707:A4 *724:A 0
5 *707:A4 *736:A 0
6 *707:A4 *1048:CK 4.09461e-05
7 *707:A4 *202:48 0
8 *707:A4 *560:10 0
9 *707:A4 *607:118 0
10 *707:A4 *607:165 0
11 *707:A4 *631:55 1.1025e-05
12 *707:A4 *647:27 0.000170018
13 *1056:D *707:A4 0
*RES
1 *706:ZN *707:A4 41.3214 
*END

*D_NET *201 0.000557435
*CONN
*I *721:A2 I *D NOR3_X1
*I *707:ZN O *D NAND4_X1
*CAP
1 *721:A2 0.000183682
2 *707:ZN 0.000183682
3 *721:A2 *698:A1 3.22565e-07
4 *721:A2 *698:B2 2.84174e-05
5 *721:A2 *703:A1 2.13715e-05
6 *721:A2 *721:A3 2.75346e-06
7 *721:A2 *724:B 5.52692e-06
8 *721:A2 *746:A 2.44202e-05
9 *721:A2 *746:B 2.48889e-05
10 *721:A2 *758:S 0
11 *707:A1 *721:A2 3.54991e-05
12 *707:A3 *721:A2 3.62289e-05
13 *721:A1 *721:A2 5.50692e-06
14 *191:121 *721:A2 1.46667e-07
15 *191:142 *721:A2 2.43548e-06
16 *195:44 *721:A2 2.55331e-06
*RES
1 *707:ZN *721:A2 33.4643 
*END

*D_NET *202 0.00375791
*CONN
*I *876:B1 I *D AOI22_X1
*I *893:B1 I *D AOI22_X1
*I *913:B1 I *D AOI22_X1
*I *1178:A I *D BUF_X2
*I *708:ZN O *D NOR3_X1
*CAP
1 *876:B1 6.37659e-06
2 *893:B1 0.000104006
3 *913:B1 0
4 *1178:A 0
5 *708:ZN 0.000137583
6 *202:52 0.0006918
7 *202:48 0.000766852
8 *202:27 0.000417824
9 *202:12 0.000369972
10 *876:B1 *799:A 1.92704e-05
11 *876:B1 *876:B2 2.94881e-06
12 *876:B1 *599:238 2.32685e-06
13 *893:B1 *785:A 4.29819e-05
14 *893:B1 *786:S 2.0214e-05
15 *893:B1 *799:A 7.62012e-05
16 *893:B1 *799:B 1.40196e-06
17 *893:B1 *876:B2 3.85464e-05
18 *893:B1 *893:B2 8.43215e-07
19 *893:B1 *895:A3 5.06354e-05
20 *893:B1 *203:35 3.19164e-07
21 *202:12 *235:26 9.24246e-06
22 *202:12 *596:22 2.72417e-06
23 *202:12 *597:10 6.94452e-05
24 *202:12 *597:32 2.57883e-05
25 *202:12 *629:10 2.19794e-06
26 *202:27 *702:A4 1.51496e-05
27 *202:27 *809:B 2.87703e-06
28 *202:27 *837:B 7.72537e-06
29 *202:27 *837:S 3.9107e-06
30 *202:27 *913:A1 1.31175e-05
31 *202:27 *916:A2 2.75346e-06
32 *202:27 *274:14 0
33 *202:27 *476:8 8.43215e-07
34 *202:27 *540:8 2.73593e-05
35 *202:27 *548:10 9.17812e-06
36 *202:27 *597:10 5.91602e-05
37 *202:27 *603:137 1.64534e-06
38 *202:48 *686:A 1.01994e-05
39 *202:48 *686:B 1.80284e-05
40 *202:48 *913:B2 1.16229e-06
41 *202:48 *916:A2 2.42461e-05
42 *202:48 *916:A3 2.80161e-05
43 *202:48 *916:A4 3.01408e-05
44 *202:48 *1048:CK 0
45 *202:48 *234:47 0
46 *202:48 *270:20 7.97076e-06
47 *202:48 *476:8 8.99555e-06
48 *202:48 *641:23 3.89107e-05
49 *202:48 *641:32 7.72537e-06
50 *202:52 *890:A4 9.02757e-05
51 *697:A4 *202:12 2.08416e-06
52 *697:A4 *202:27 1.0432e-05
53 *702:A1 *202:27 0
54 *702:A3 *202:27 0
55 *707:A4 *202:48 0
56 *708:A2 *202:12 3.47409e-05
57 *809:S *202:27 3.51654e-06
58 *872:B *202:12 7.30645e-06
59 *912:B1 *202:27 1.58475e-05
60 *969:D *202:12 2.38892e-05
61 *1012:D *202:27 0
62 *1048:D *202:48 0
63 *1049:D *893:B1 3.34038e-05
64 *157:16 *202:12 1.16091e-05
65 *157:20 *202:12 2.78761e-05
66 *159:25 *202:12 7.50533e-05
67 *184:52 *202:27 0
68 *190:142 *202:52 4.51744e-06
69 *190:165 *202:52 5.79721e-05
70 *191:121 *202:52 6.87288e-05
71 *193:20 *202:48 3.98975e-07
72 *195:16 *202:27 2.82739e-05
73 *195:44 *202:27 3.36239e-05
74 *195:44 *202:48 2.24327e-06
75 *196:8 *202:27 0
76 *196:59 *202:48 4.16213e-06
77 *196:76 *202:48 5.36441e-07
78 *196:95 *202:52 4.28062e-05
*RES
1 *708:ZN *202:12 35.5714 
2 *202:12 *1178:A 5 
3 *202:12 *202:27 37.2857 
4 *202:27 *913:B1 5 
5 *202:27 *202:48 40.1429 
6 *202:48 *202:52 27.89 
7 *202:52 *893:B1 25.3214 
8 *202:52 *876:B1 11.1071 
*END

*D_NET *203 0.00358383
*CONN
*I *892:A2 I *D AOI22_X1
*I *875:B1 I *D AOI22_X1
*I *1177:A I *D BUF_X2
*I *709:ZN O *D NOR3_X1
*CAP
1 *892:A2 0.000130027
2 *875:B1 1.23923e-05
3 *1177:A 8.46531e-06
4 *709:ZN 2.1942e-05
5 *203:39 0.000176667
6 *203:35 0.000411371
7 *203:29 0.000702644
8 *203:25 0.000426109
9 *203:10 0.000130995
10 *875:B1 *1065:CK 3.76527e-05
11 *875:B1 *648:105 1.77822e-05
12 *892:A2 *806:B 3.83909e-06
13 *892:A2 *875:A1 3.65709e-05
14 *892:A2 *892:A1 8.26038e-06
15 *892:A2 *253:12 0.000104535
16 *892:A2 *569:10 1.52083e-06
17 *892:A2 *600:200 6.3924e-06
18 *1177:A *212:18 4.9678e-06
19 *203:10 *595:77 1.23777e-05
20 *203:25 *690:A2 6.09818e-06
21 *203:25 *701:A2 8.2121e-06
22 *203:25 *208:16 3.88401e-06
23 *203:25 *212:18 4.68638e-06
24 *203:25 *595:77 4.16195e-06
25 *203:25 *631:40 3.47351e-05
26 *203:25 *632:14 0
27 *203:25 *633:240 3.76676e-06
28 *203:29 *702:A2 0
29 *203:29 *740:B 2.36213e-05
30 *203:29 *830:B 6.99999e-05
31 *203:29 *234:41 4.04707e-06
32 *203:29 *234:47 8.89076e-05
33 *203:29 *560:10 1.58933e-05
34 *203:29 *603:124 4.10362e-05
35 *203:29 *607:118 2.77515e-05
36 *203:29 *631:55 3.99224e-05
37 *203:29 *631:66 4.69702e-07
38 *203:35 *740:B 1.87369e-06
39 *203:35 *799:B 7.19036e-06
40 *203:35 *799:S 4.16838e-06
41 *203:35 *894:A2 1.04624e-05
42 *203:35 *1041:CK 0
43 *203:35 *1065:CK 4.79629e-05
44 *203:35 *234:47 6.50237e-05
45 *203:35 *234:51 4.29124e-05
46 *203:35 *554:12 5.93941e-05
47 *203:35 *601:71 0
48 *203:35 *601:77 0
49 *203:35 *631:66 5.91164e-06
50 *203:39 *799:B 0.000104497
51 *203:39 *1065:CK 0.000143483
52 *717:A1 *1177:A 1.26998e-05
53 *717:A1 *203:25 1.26998e-05
54 *875:A2 *875:B1 1.77822e-05
55 *875:A2 *203:39 3.85828e-05
56 *876:A2 *203:35 5.34723e-05
57 *893:B1 *203:35 3.19164e-07
58 *1049:D *203:35 1.52466e-05
59 *1056:D *203:29 3.89107e-05
60 *181:80 *203:10 3.41866e-06
61 *181:80 *203:25 3.16844e-05
62 *184:146 *875:B1 8.75656e-06
63 *185:12 *203:25 2.19048e-07
64 *190:165 *203:35 9.99327e-05
65 *195:16 *203:29 0.000125522
*RES
1 *709:ZN *203:10 17.2857 
2 *203:10 *1177:A 6.25 
3 *203:10 *203:25 22.3571 
4 *203:25 *203:29 44.1786 
5 *203:29 *203:35 46.4286 
6 *203:35 *203:39 13.3929 
7 *203:39 *875:B1 12.9643 
8 *203:39 *892:A2 35.6786 
*END

*D_NET *204 0.000697473
*CONN
*I *720:A1 I *D NAND4_X1
*I *710:ZN O *D AOI22_X1
*CAP
1 *720:A1 0.000142241
2 *710:ZN 0.000142241
3 *720:A1 *720:A3 2.16072e-07
4 *720:A1 *866:S 2.89018e-05
5 *720:A1 *909:B1 0
6 *720:A1 *205:85 6.42656e-06
7 *720:A1 *205:93 0.000174451
8 *720:A1 *206:62 4.47141e-05
9 *720:A1 *206:66 7.18825e-05
10 *720:A1 *214:12 1.44182e-05
11 *720:A1 *617:62 4.11048e-05
12 *720:A1 *642:72 3.08753e-05
*RES
1 *710:ZN *720:A1 42.5 
*END

*D_NET *205 0.0101744
*CONN
*I *894:B1 I *D AOI22_X1
*I *946:A2 I *D AOI22_X1
*I *937:B1 I *D AOI22_X1
*I *924:A2 I *D AOI22_X1
*I *713:A2 I *D AOI22_X1
*I *881:A2 I *D AOI22_X1
*I *915:B1 I *D AOI22_X1
*I *903:B1 I *D AOI222_X1
*I *711:ZN O *D NOR4_X2
*CAP
1 *894:B1 6.69724e-05
2 *946:A2 0
3 *937:B1 0
4 *924:A2 0.000101308
5 *713:A2 2.6357e-05
6 *881:A2 0.000118315
7 *915:B1 3.84634e-06
8 *903:B1 8.04555e-05
9 *711:ZN 9.37277e-06
10 *205:125 0.000713076
11 *205:93 0.000234685
12 *205:85 0.000839342
13 *205:81 8.95596e-05
14 *205:75 0.000536573
15 *205:73 0.000530583
16 *205:69 0.000340042
17 *205:54 0.000624205
18 *205:37 0.000553885
19 *205:16 0.000379369
20 *205:8 0.00056118
21 *713:A2 *713:B1 1.52083e-06
22 *713:A2 *866:S 2.20301e-05
23 *713:A2 *617:62 6.71335e-06
24 *881:A2 *742:A 3.08164e-05
25 *881:A2 *881:A1 5.51848e-05
26 *881:A2 *457:10 0.000136789
27 *881:A2 *623:10 5.43307e-05
28 *894:B1 *894:A1 3.09143e-06
29 *894:B1 *894:A2 1.60629e-06
30 *894:B1 *894:B2 8.7256e-06
31 *894:B1 *214:14 2.23161e-05
32 *894:B1 *247:10 3.89949e-05
33 *894:B1 *627:26 4.62804e-05
34 *903:B1 *659:A 1.7524e-06
35 *903:B1 *727:A2 1.72405e-05
36 *903:B1 *903:B2 3.47339e-05
37 *903:B1 *903:C1 2.46834e-06
38 *903:B1 *206:18 2.33199e-05
39 *903:B1 *223:35 0
40 *903:B1 *265:12 9.36271e-05
41 *903:B1 *612:34 1.3143e-06
42 *915:B1 *823:A 8.7704e-06
43 *915:B1 *234:33 1.2517e-06
44 *924:A2 *866:A 9.10538e-05
45 *924:A2 *866:B 9.55734e-06
46 *924:A2 *924:A1 7.0174e-05
47 *924:A2 *981:CK 4.57495e-05
48 *924:A2 *604:101 1.39292e-05
49 *924:A2 *642:72 5.50748e-05
50 *205:8 *630:12 1.42606e-05
51 *205:16 *669:B 1.7614e-06
52 *205:16 *726:A1 9.57492e-07
53 *205:16 *1179:A 3.85021e-06
54 *205:16 *216:24 5.69678e-05
55 *205:16 *231:14 0.000202868
56 *205:16 *597:42 1.73915e-06
57 *205:16 *599:104 0
58 *205:16 *611:70 8.02584e-06
59 *205:16 *618:12 8.56923e-06
60 *205:16 *629:10 0
61 *205:16 *633:185 6.1937e-06
62 *205:16 *638:25 1.73981e-05
63 *205:16 *638:36 2.23944e-05
64 *205:37 *1179:A 1.17953e-05
65 *205:37 *208:16 3.12163e-05
66 *205:37 *594:73 2.72171e-06
67 *205:37 *594:79 7.65279e-06
68 *205:37 *597:42 4.025e-07
69 *205:54 *208:16 3.90595e-05
70 *205:54 *227:142 8.93781e-05
71 *205:69 *227:142 0.000519176
72 *205:69 *245:12 0.000198255
73 *205:73 *889:A2 4.24423e-05
74 *205:73 *247:10 4.82847e-05
75 *205:73 *627:26 0.000190323
76 *205:75 *856:A 3.5494e-06
77 *205:75 *886:B1 2.85862e-06
78 *205:75 *214:14 0.000182375
79 *205:75 *233:48 0.000116702
80 *205:75 *247:10 6.81816e-05
81 *205:75 *463:8 1.22599e-05
82 *205:75 *565:10 2.50612e-05
83 *205:75 *621:48 2.66911e-05
84 *205:75 *625:33 8.27711e-06
85 *205:75 *627:26 1.36837e-05
86 *205:81 *946:A1 5.86674e-05
87 *205:81 *527:10 1.67377e-05
88 *205:81 *628:71 3.58094e-06
89 *205:81 *628:88 0
90 *205:93 *866:S 3.28631e-05
91 *205:93 *633:117 5.58859e-06
92 *205:125 *815:S 0.000136766
93 *205:125 *818:S 0.000413304
94 *205:125 *619:24 1.7586e-05
95 *205:125 *629:20 0
96 *205:125 *633:69 0
97 *693:A2 *205:16 5.49753e-06
98 *708:A3 *205:16 2.93983e-06
99 *714:A2 *205:8 2.81356e-06
100 *720:A1 *205:85 6.42656e-06
101 *720:A1 *205:93 0.000174451
102 *727:A1 *205:16 7.19036e-06
103 *739:A1 *205:16 0
104 *745:A1 *205:16 5.41015e-05
105 *755:A2 *903:B1 3.22858e-06
106 *937:A2 *205:125 2.30229e-05
107 *938:A2 *903:B1 6.52684e-06
108 *986:D *205:75 4.11023e-05
109 *1037:D *205:75 1.60386e-06
110 *1064:D *881:A2 3.1358e-05
111 *150:39 *205:16 0.000103693
112 *150:41 *205:16 6.86795e-05
113 *178:24 *205:125 9.23622e-05
114 *179:10 *903:B1 1.65484e-05
115 *179:10 *205:16 0
116 *179:18 *205:16 2.86487e-05
117 *181:54 *205:125 4.00129e-05
118 *188:10 *205:16 1.99403e-06
119 *193:73 *903:B1 2.70813e-05
120 *199:12 *205:37 3.21635e-05
121 *199:12 *205:54 2.49539e-05
*RES
1 *711:ZN *205:8 11.25 
2 *205:8 *205:16 49.7143 
3 *205:16 *903:B1 23 
4 *205:8 *205:37 16.1629 
5 *205:37 *915:B1 15.5 
6 *205:37 *205:54 11.13 
7 *205:54 *881:A2 32.3214 
8 *205:54 *205:69 16.97 
9 *205:69 *205:73 11.2857 
10 *205:73 *205:75 58.6072 
11 *205:75 *205:81 14.1786 
12 *205:81 *205:85 6.92857 
13 *205:85 *205:93 15.5 
14 *205:93 *713:A2 13.2143 
15 *205:93 *924:A2 27.1786 
16 *205:85 *205:125 45.86 
17 *205:125 *937:B1 5 
18 *205:81 *946:A2 5 
19 *205:69 *894:B1 19 
*END

*D_NET *206 0.0080761
*CONN
*I *889:A2 I *D AOI22_X1
*I *880:B1 I *D AOI22_X1
*I *921:B1 I *D AOI22_X1
*I *946:B1 I *D AOI22_X1
*I *713:B1 I *D AOI22_X1
*I *909:B1 I *D AOI22_X1
*I *939:B1 I *D AOI22_X1
*I *901:A2 I *D AOI22_X1
*I *712:ZN O *D NOR4_X2
*CAP
1 *889:A2 0.000100561
2 *880:B1 2.25288e-06
3 *921:B1 0
4 *946:B1 3.05854e-05
5 *713:B1 4.9584e-05
6 *909:B1 0.000187042
7 *939:B1 0
8 *901:A2 0.000198294
9 *712:ZN 5.08735e-05
10 *206:66 0.000306101
11 *206:62 0.000386358
12 *206:56 0.000361463
13 *206:52 0.000196266
14 *206:42 0.000672631
15 *206:40 0.000653514
16 *206:20 0.000222722
17 *206:18 0.000245487
18 *206:14 0.000258744
19 *206:10 0.000288852
20 *713:B1 *713:A1 1.23567e-05
21 *713:B1 *713:B2 2.86475e-06
22 *713:B1 *716:A1 2.48071e-06
23 *713:B1 *214:12 1.52097e-06
24 *713:B1 *617:62 3.84845e-05
25 *713:B1 *624:71 2.75346e-06
26 *713:B1 *626:76 2.89448e-07
27 *880:B1 *632:36 3.98806e-07
28 *889:A2 *889:A1 0.000108291
29 *889:A2 *209:31 1.6133e-05
30 *889:A2 *230:35 0
31 *889:A2 *247:10 4.18985e-05
32 *889:A2 *514:8 4.59552e-06
33 *889:A2 *522:8 4.32144e-07
34 *889:A2 *633:387 0
35 *901:A2 *902:A4 2.94435e-05
36 *901:A2 *936:A1 7.82575e-05
37 *901:A2 *936:B1 8.56923e-06
38 *901:A2 *938:B2 7.47756e-06
39 *901:A2 *940:A1 0.00025777
40 *901:A2 *940:A2 0.000147524
41 *901:A2 *227:30 4.89981e-05
42 *901:A2 *617:18 3.69346e-06
43 *901:A2 *618:16 1.38525e-05
44 *909:B1 *713:A1 3.24963e-05
45 *909:B1 *719:B1 5.56848e-05
46 *909:B1 *720:A3 3.09411e-06
47 *909:B1 *754:B 0
48 *909:B1 *844:A 0
49 *909:B1 *844:B 0
50 *909:B1 *851:B 0
51 *909:B1 *909:B2 1.21774e-06
52 *909:B1 *911:A3 3.88456e-06
53 *909:B1 *1000:CK 1.57087e-05
54 *909:B1 *214:12 2.65002e-06
55 *909:B1 *528:12 0
56 *909:B1 *603:183 0
57 *909:B1 *607:54 9.40545e-06
58 *909:B1 *617:62 2.86475e-06
59 *909:B1 *619:67 0
60 *909:B1 *619:105 0
61 *909:B1 *642:72 1.80538e-05
62 *946:B1 *868:S 0
63 *946:B1 *946:A1 2.43548e-06
64 *946:B1 *946:B2 2.75346e-06
65 *946:B1 *302:14 2.75346e-06
66 *946:B1 *628:71 0
67 *206:10 *265:12 2.04138e-05
68 *206:10 *630:12 1.01486e-05
69 *206:10 *630:16 2.76785e-05
70 *206:14 *599:131 9.0471e-06
71 *206:18 *864:B 3.25614e-06
72 *206:18 *903:B2 4.32319e-05
73 *206:18 *940:A1 3.47057e-06
74 *206:18 *940:A2 1.58812e-07
75 *206:18 *940:A3 8.16741e-05
76 *206:18 *942:A 5.38264e-05
77 *206:18 *218:60 0.000208212
78 *206:18 *265:12 4.67945e-05
79 *206:18 *616:16 5.37008e-05
80 *206:18 *619:18 1.02762e-05
81 *206:20 *939:A1 7.19036e-06
82 *206:20 *939:B2 2.39679e-06
83 *206:20 *940:A3 0
84 *206:40 *651:A 7.30645e-06
85 *206:40 *687:A1 2.69685e-06
86 *206:40 *715:A1 5.1203e-06
87 *206:40 *715:A2 1.43238e-06
88 *206:40 *747:A3 4.12191e-06
89 *206:40 *747:A4 7.72792e-06
90 *206:40 *209:21 0
91 *206:40 *597:57 0
92 *206:40 *599:110 3.62519e-06
93 *206:40 *599:131 1.79047e-06
94 *206:40 *622:38 2.87703e-06
95 *206:40 *626:14 7.19036e-06
96 *206:40 *638:10 0
97 *206:42 *813:B 0
98 *206:42 *865:A 1.87637e-06
99 *206:42 *865:S 2.2172e-05
100 *206:42 *889:A1 6.54588e-06
101 *206:42 *977:CK 6.40152e-06
102 *206:42 *1174:A 2.83434e-06
103 *206:42 *209:21 7.53571e-05
104 *206:42 *209:31 1.03332e-05
105 *206:42 *522:8 3.24108e-07
106 *206:42 *561:10 4.38826e-05
107 *206:42 *622:38 0
108 *206:42 *622:61 0
109 *206:42 *625:14 1.63326e-05
110 *206:42 *632:26 0
111 *206:42 *633:367 0
112 *206:42 *633:371 0
113 *206:42 *633:378 0
114 *206:42 *640:6 0
115 *206:52 *820:A 9.85725e-07
116 *206:52 *849:A 0.000190127
117 *206:52 *880:A1 1.09659e-05
118 *206:52 *889:A1 4.26902e-05
119 *206:52 *222:109 0
120 *206:52 *232:132 3.53948e-05
121 *206:52 *245:12 9.83411e-06
122 *206:52 *622:63 1.4293e-06
123 *206:52 *631:76 0.000141866
124 *206:52 *632:36 9.85791e-05
125 *206:56 *921:A1 8.31687e-06
126 *206:56 *525:10 1.29411e-05
127 *206:56 *632:36 3.6934e-05
128 *206:56 *632:38 6.93832e-06
129 *206:56 *632:56 8.37875e-06
130 *206:62 *826:S 9.34432e-05
131 *206:62 *845:B 4.2299e-06
132 *206:62 *921:A1 2.24822e-06
133 *206:62 *921:A2 6.85774e-07
134 *206:62 *921:B2 2.75346e-06
135 *206:62 *923:A3 2.39679e-06
136 *206:62 *997:CK 1.28577e-06
137 *206:62 *233:48 0
138 *206:62 *622:63 0.000126779
139 *206:62 *629:48 1.4186e-05
140 *206:62 *629:58 3.81942e-06
141 *206:62 *632:56 2.55605e-05
142 *206:62 *643:35 2.08098e-06
143 *206:66 *719:A1 0.000256571
144 *206:66 *617:62 0.000105043
145 *206:66 *622:63 8.55081e-06
146 *693:A1 *206:40 0
147 *713:A2 *713:B1 1.52083e-06
148 *715:A3 *206:40 9.0924e-06
149 *720:A1 *909:B1 0
150 *720:A1 *206:62 4.47141e-05
151 *720:A1 *206:66 7.18825e-05
152 *739:A1 *206:40 1.92742e-05
153 *903:B1 *206:18 2.33199e-05
154 *938:A2 *206:18 0.000182345
155 *939:A2 *206:18 7.74993e-06
156 *939:A2 *206:20 1.18589e-06
157 *977:D *206:42 2.67625e-05
158 *1000:D *909:B1 3.52448e-06
159 *150:8 *206:14 8.29692e-06
160 *150:8 *206:40 1.76006e-06
161 *182:23 *206:40 0
162 *184:10 *206:18 7.88832e-05
163 *184:16 *206:18 0.000293652
164 *190:40 *901:A2 8.33759e-07
165 *205:73 *889:A2 4.24423e-05
*RES
1 *712:ZN *206:10 22.0357 
2 *206:10 *206:14 9.25 
3 *206:14 *206:18 48.6786 
4 *206:18 *206:20 2.25 
5 *206:20 *901:A2 47.1429 
6 *206:20 *939:B1 5 
7 *206:10 *206:40 20.8572 
8 *206:40 *206:42 48.25 
9 *206:42 *206:52 34.4829 
10 *206:52 *206:56 13.3214 
11 *206:56 *206:62 43.2857 
12 *206:62 *206:66 20.8571 
13 *206:66 *909:B1 36.8929 
14 *206:66 *713:B1 20.5357 
15 *206:62 *946:B1 12.75 
16 *206:56 *921:B1 5 
17 *206:52 *880:B1 10.3214 
18 *206:42 *889:A2 28.7857 
*END

*D_NET *207 0.000200012
*CONN
*I *720:A2 I *D NAND4_X1
*I *713:ZN O *D AOI22_X1
*CAP
1 *720:A2 4.34126e-05
2 *713:ZN 4.34126e-05
3 *720:A2 *713:A1 2.61032e-05
4 *720:A2 *716:A1 1.17093e-06
5 *720:A2 *719:A1 2.26515e-05
6 *720:A2 *720:A3 1.12076e-05
7 *720:A2 *720:A4 2.99872e-05
8 *720:A2 *617:62 2.20663e-05
*RES
1 *713:ZN *720:A2 26.3929 
*END

*D_NET *208 0.00527188
*CONN
*I *1176:A I *D BUF_X2
*I *933:A2 I *D AOI22_X1
*I *907:A2 I *D AOI22_X1
*I *899:A2 I *D AOI22_X1
*I *714:ZN O *D NOR3_X1
*CAP
1 *1176:A 1.57028e-05
2 *933:A2 8.03232e-05
3 *907:A2 0
4 *899:A2 6.99454e-05
5 *714:ZN 0.000233107
6 *208:36 0.000400853
7 *208:22 0.000899931
8 *208:20 0.000555949
9 *208:16 0.000316059
10 *899:A2 *766:A 0.00019545
11 *899:A2 *773:S 7.72792e-06
12 *899:A2 *899:A1 8.97107e-05
13 *899:A2 *899:B1 4.35349e-06
14 *899:A2 *902:A2 0
15 *899:A2 *907:A1 3.09411e-06
16 *899:A2 *211:18 6.07888e-06
17 *899:A2 *499:12 9.04209e-05
18 *933:A2 *818:A 7.0096e-06
19 *933:A2 *818:B 5.96771e-05
20 *933:A2 *933:A1 1.14964e-05
21 *933:A2 *270:14 6.85774e-07
22 *933:A2 *637:70 1.28577e-06
23 *1176:A *631:55 3.0727e-06
24 *208:16 *690:A1 2.03236e-06
25 *208:16 *690:A2 1.72426e-05
26 *208:16 *717:A2 1.40196e-06
27 *208:16 *594:115 2.39679e-06
28 *208:16 *595:66 0
29 *208:16 *596:71 2.37744e-05
30 *208:16 *597:57 0
31 *208:16 *628:8 1.0794e-06
32 *208:22 *759:A 1.31614e-06
33 *208:22 *783:A 1.89463e-06
34 *208:22 *855:A 8.75656e-06
35 *208:22 *855:B 3.75103e-05
36 *208:22 *860:A 0
37 *208:22 *860:S 0
38 *208:22 *931:B2 7.64143e-06
39 *208:22 *935:A2 0
40 *208:22 *1043:CK 8.56923e-06
41 *208:22 *216:81 2.54818e-05
42 *208:22 *216:126 7.76879e-05
43 *208:22 *270:14 9.5257e-06
44 *208:22 *518:8 0
45 *208:22 *545:10 0.000188533
46 *208:22 *600:77 9.50324e-06
47 *208:22 *633:25 4.43282e-05
48 *208:22 *633:46 2.00207e-05
49 *208:22 *637:31 3.31821e-05
50 *208:22 *637:35 1.1429e-05
51 *208:22 *637:78 2.66752e-06
52 *208:36 *766:A 1.06486e-06
53 *208:36 *773:S 7.72537e-06
54 *208:36 *802:S 5.27253e-05
55 *208:36 *818:S 0.000303529
56 *208:36 *902:A2 0
57 *208:36 *907:A1 2.43548e-06
58 *208:36 *211:18 0.000417538
59 *208:36 *232:14 1.62931e-06
60 *208:36 *270:14 6.99531e-06
61 *208:36 *637:35 7.63605e-06
62 *701:A3 *208:16 3.56012e-06
63 *717:A1 *208:16 2.88159e-06
64 *718:A1 *208:16 0
65 *985:D *208:22 9.31588e-05
66 *1019:D *208:36 3.46622e-05
67 *1038:D *933:A2 6.51841e-05
68 *1046:D *933:A2 1.91256e-06
69 *1086:D *208:36 2.18005e-05
70 *185:12 *208:16 4.59461e-06
71 *188:126 *1176:A 1.74343e-07
72 *188:126 *208:20 2.07206e-05
73 *188:126 *208:22 7.92573e-05
74 *190:30 *208:36 4.35551e-06
75 *191:29 *1176:A 2.85965e-05
76 *191:29 *208:20 0.000129382
77 *191:29 *208:22 4.26469e-05
78 *199:12 *208:16 0.00027564
79 *203:25 *208:16 3.88401e-06
80 *205:37 *208:16 3.12163e-05
81 *205:54 *208:16 3.90595e-05
*RES
1 *714:ZN *208:16 37.5814 
2 *208:16 *208:20 8.83929 
3 *208:20 *208:22 63.0179 
4 *208:22 *208:36 48.4972 
5 *208:36 *899:A2 28.8929 
6 *208:36 *907:A2 5 
7 *208:22 *933:A2 31.0357 
8 *208:16 *1176:A 11.8929 
*END

*D_NET *209 0.00279293
*CONN
*I *892:B1 I *D AOI22_X1
*I *877:B1 I *D AOI22_X1
*I *1175:A I *D BUF_X2
*I *715:ZN O *D NOR3_X1
*CAP
1 *892:B1 0.000159734
2 *877:B1 0
3 *1175:A 3.21612e-05
4 *715:ZN 3.86029e-05
5 *209:31 0.000499932
6 *209:21 0.000705355
7 *209:6 0.000435921
8 *892:B1 *875:A1 0
9 *892:B1 *875:B2 0
10 *892:B1 *877:B2 1.31801e-05
11 *892:B1 *892:A1 1.8133e-05
12 *892:B1 *892:B2 2.75346e-06
13 *892:B1 *530:8 2.30036e-05
14 *892:B1 *600:170 0
15 *892:B1 *648:94 2.23871e-06
16 *892:B1 *648:105 9.57492e-07
17 *1175:A *687:A2 7.94555e-05
18 *209:21 *865:A 1.26998e-05
19 *209:21 *865:S 4.08571e-06
20 *209:21 *212:18 4.58721e-05
21 *209:21 *212:65 0.000114571
22 *209:21 *457:10 4.4596e-05
23 *209:21 *561:10 1.75824e-05
24 *209:31 *757:A 0
25 *209:31 *764:B 0
26 *209:31 *764:S 0
27 *209:31 *785:S 0
28 *209:31 *792:S 3.00439e-05
29 *209:31 *863:B 3.30047e-06
30 *209:31 *863:S 9.51365e-05
31 *209:31 *874:B2 4.51416e-05
32 *209:31 *877:B2 2.75346e-06
33 *209:31 *878:A4 2.50986e-05
34 *209:31 *889:A1 9.63363e-05
35 *209:31 *889:B1 9.62051e-07
36 *209:31 *978:CK 0
37 *209:31 *1089:CK 1.69265e-05
38 *209:31 *1210:A 2.24822e-06
39 *209:31 *212:65 3.39814e-05
40 *209:31 *497:14 3.21555e-05
41 *209:31 *600:145 0
42 *209:31 *600:155 0
43 *209:31 *627:35 0
44 *209:31 *648:8 6.0973e-06
45 *715:A3 *209:6 6.46673e-07
46 *717:A3 *209:6 5.81102e-06
47 *717:A3 *209:21 2.33934e-05
48 *889:A2 *209:31 1.6133e-05
49 *1001:D *892:B1 8.32851e-06
50 *1002:D *892:B1 0
51 *1057:D *209:31 7.19036e-06
52 *1089:D *209:31 0
53 *181:80 *1175:A 0
54 *182:23 *209:6 2.81643e-06
55 *188:106 *892:B1 1.21774e-06
56 *188:106 *209:31 6.85774e-07
57 *206:40 *209:21 0
58 *206:42 *209:21 7.53571e-05
59 *206:42 *209:31 1.03332e-05
*RES
1 *715:ZN *209:6 8.25 
2 *209:6 *1175:A 19.3214 
3 *209:6 *209:21 46.1786 
4 *209:21 *209:31 43.7857 
5 *209:31 *877:B1 5 
6 *209:31 *892:B1 23.7143 
*END

*D_NET *210 0.000184031
*CONN
*I *720:A3 I *D NAND4_X1
*I *716:ZN O *D AOI22_X1
*CAP
1 *720:A3 5.15596e-05
2 *716:ZN 5.15596e-05
3 *720:A3 *713:A1 4.18149e-05
4 *720:A3 *719:A1 1.48931e-06
5 *720:A3 *719:B1 1.99403e-06
6 *720:A3 *720:A4 1.72405e-05
7 *720:A3 *607:41 0
8 *720:A3 *627:71 3.85496e-06
9 *720:A1 *720:A3 2.16072e-07
10 *720:A2 *720:A3 1.12076e-05
11 *909:B1 *720:A3 3.09411e-06
*RES
1 *716:ZN *720:A3 25.75 
*END

*D_NET *211 0.00514636
*CONN
*I *1174:A I *D BUF_X2
*I *719:A2 I *D AOI22_X1
*I *933:B1 I *D AOI22_X1
*I *907:B1 I *D AOI22_X1
*I *899:B1 I *D AOI22_X1
*I *717:ZN O *D NOR3_X1
*CAP
1 *1174:A 1.1444e-05
2 *719:A2 0.00019169
3 *933:B1 0
4 *907:B1 6.07591e-06
5 *899:B1 0.000117105
6 *717:ZN 6.35459e-05
7 *211:44 0.000362308
8 *211:18 0.000258341
9 *211:12 0.000305778
10 *211:10 0.000323441
11 *211:8 0.000398431
12 *719:A2 *719:B1 0
13 *719:A2 *748:A 9.67365e-05
14 *719:A2 *811:B 7.72792e-06
15 *719:A2 *818:B 0
16 *719:A2 *845:S 7.40328e-06
17 *719:A2 *909:A2 0
18 *719:A2 *933:A1 4.92988e-06
19 *719:A2 *532:10 3.51536e-06
20 *719:A2 *616:45 0
21 *719:A2 *628:71 0
22 *899:B1 *766:S 2.27914e-05
23 *899:B1 *858:S 0
24 *899:B1 *899:A1 3.54999e-05
25 *899:B1 *899:B2 2.75346e-06
26 *899:B1 *499:12 3.69935e-05
27 *899:B1 *618:37 1.59582e-06
28 *907:B1 *907:A1 1.32323e-05
29 *907:B1 *907:B2 1.32323e-05
30 *1174:A *622:38 0
31 *211:8 *717:A2 2.75647e-05
32 *211:8 *234:33 0.00015922
33 *211:8 *620:12 0
34 *211:10 *216:69 0
35 *211:10 *222:14 4.69746e-05
36 *211:10 *222:16 0.000273001
37 *211:10 *234:33 0.00021087
38 *211:10 *620:12 0
39 *211:18 *766:S 1.66271e-07
40 *211:18 *1019:CK 3.71274e-05
41 *211:18 *232:14 0.000238161
42 *211:18 *232:16 0.000163599
43 *211:18 *232:38 4.0614e-05
44 *211:44 *769:B 8.86009e-06
45 *211:44 *818:A 1.50816e-05
46 *211:44 *933:A1 8.32748e-06
47 *211:44 *933:B2 0.000123391
48 *211:44 *1019:CK 5.84443e-05
49 *211:44 *290:12 3.15351e-05
50 *211:44 *502:8 0
51 *211:44 *637:41 1.60494e-06
52 *717:A3 *211:8 1.04526e-05
53 *811:S *719:A2 1.39839e-06
54 *899:A2 *899:B1 4.35349e-06
55 *899:A2 *211:18 6.07888e-06
56 *1008:D *719:A2 1.59719e-05
57 *1086:D *211:18 0
58 *1086:D *211:44 0
59 *178:12 *211:10 0.000562634
60 *178:16 *211:10 0.000168976
61 *178:20 *211:10 6.41643e-06
62 *178:62 *211:10 9.99737e-05
63 *181:10 *211:10 0.000120617
64 *206:42 *1174:A 2.83434e-06
65 *208:36 *211:18 0.000417538
*RES
1 *717:ZN *211:8 19.0714 
2 *211:8 *211:10 57.9286 
3 *211:10 *211:12 5 
4 *211:12 *211:18 33.4286 
5 *211:18 *899:B1 24.3929 
6 *211:18 *907:B1 11.25 
7 *211:12 *211:44 23.1072 
8 *211:44 *933:B1 5 
9 *211:44 *719:A2 27.5357 
10 *211:8 *1174:A 11.25 
*END

*D_NET *212 0.00487769
*CONN
*I *889:B1 I *D AOI22_X1
*I *879:B1 I *D AOI22_X1
*I *932:B1 I *D AOI22_X1
*I *1173:A I *D BUF_X1
*I *718:ZN O *D NOR4_X1
*CAP
1 *889:B1 2.9393e-05
2 *879:B1 2.0945e-05
3 *932:B1 1.95721e-05
4 *1173:A 1.64261e-05
5 *718:ZN 0.000185868
6 *212:65 0.000434131
7 *212:36 0.00040347
8 *212:32 0.000673503
9 *212:22 0.000404987
10 *212:18 0.00070776
11 *879:B1 *879:B2 3.18369e-05
12 *879:B1 *883:A1 3.18369e-05
13 *889:B1 *889:A1 8.43215e-07
14 *889:B1 *247:10 5.11191e-06
15 *889:B1 *250:12 5.38494e-05
16 *889:B1 *514:8 3.09143e-06
17 *889:B1 *601:81 1.21105e-05
18 *932:B1 *932:B2 2.84174e-05
19 *932:B1 *935:A2 6.25396e-06
20 *932:B1 *224:29 0
21 *1173:A *907:B2 3.37909e-05
22 *1173:A *603:21 3.4322e-05
23 *212:18 *717:A2 3.09143e-06
24 *212:18 *823:A 0
25 *212:18 *865:B 2.2287e-05
26 *212:18 *915:B2 0
27 *212:18 *595:77 3.88252e-05
28 *212:22 *865:S 9.0949e-05
29 *212:22 *603:85 7.32406e-05
30 *212:22 *622:48 4.11048e-05
31 *212:32 *860:S 0.00012973
32 *212:32 *879:A1 2.75544e-05
33 *212:32 *879:B2 2.64361e-05
34 *212:32 *216:81 4.88901e-05
35 *212:32 *225:20 1.31487e-05
36 *212:32 *270:20 9.01367e-05
37 *212:32 *603:85 1.045e-05
38 *212:32 *633:25 2.43205e-06
39 *212:32 *633:175 9.05417e-06
40 *212:36 *818:A 0.000242446
41 *212:36 *851:A 1.07993e-05
42 *212:36 *851:S 2.87152e-06
43 *212:36 *860:S 2.14477e-05
44 *212:36 *911:A3 0
45 *212:36 *1004:CK 0
46 *212:36 *270:14 0
47 *212:36 *270:18 1.11608e-05
48 *212:36 *270:20 4.38894e-06
49 *212:36 *524:10 2.82773e-05
50 *212:36 *624:10 0
51 *212:36 *637:78 2.50734e-06
52 *212:65 *821:S 0
53 *212:65 *823:S 0
54 *212:65 *863:B 1.33939e-05
55 *212:65 *863:S 3.53548e-05
56 *212:65 *978:CK 0
57 *212:65 *980:CK 0
58 *212:65 *1210:A 1.32323e-05
59 *212:65 *224:63 0
60 *212:65 *457:10 4.4596e-05
61 *717:A1 *212:18 1.03531e-05
62 *717:A3 *212:18 3.07244e-05
63 *978:D *212:65 1.5896e-05
64 *980:D *212:18 2.63087e-06
65 *980:D *212:65 2.82357e-05
66 *985:D *212:32 6.54288e-06
67 *996:D *212:36 2.1479e-06
68 *1177:A *212:18 4.9678e-06
69 *188:64 *212:22 0.000340002
70 *188:64 *212:32 2.89018e-05
71 *193:42 *212:32 1.18907e-05
72 *203:25 *212:18 4.68638e-06
73 *209:21 *212:18 4.58721e-05
74 *209:21 *212:65 0.000114571
75 *209:31 *889:B1 9.62051e-07
76 *209:31 *212:65 3.39814e-05
*RES
1 *718:ZN *212:18 27.3214 
2 *212:18 *212:22 24.9286 
3 *212:22 *212:32 47.2143 
4 *212:32 *212:36 47.3214 
5 *212:36 *1173:A 8.25 
6 *212:32 *932:B1 12.75 
7 *212:22 *879:B1 13.25 
8 *212:18 *212:65 47.6786 
9 *212:65 *889:B1 19.3929 
*END

*D_NET *213 0.000413238
*CONN
*I *720:A4 I *D NAND4_X1
*I *719:ZN O *D AOI22_X1
*CAP
1 *720:A4 6.6278e-05
2 *719:ZN 6.6278e-05
3 *720:A4 *713:A1 3.41288e-05
4 *720:A4 *719:A1 1.18093e-05
5 *720:A4 *464:10 4.5774e-05
6 *720:A4 *622:63 2.49497e-05
7 *720:A4 *622:67 0.000116792
8 *720:A2 *720:A4 2.99872e-05
9 *720:A3 *720:A4 1.72405e-05
*RES
1 *719:ZN *720:A4 32.4643 
*END

*D_NET *214 0.00317595
*CONN
*I *721:A3 I *D NOR3_X1
*I *720:ZN O *D NAND4_X1
*CAP
1 *721:A3 8.90752e-06
2 *720:ZN 0.000106445
3 *214:14 0.000913294
4 *214:12 0.00101083
5 *721:A3 *746:A 1.25189e-05
6 *721:A3 *746:B 2.99578e-06
7 *214:12 *713:A1 2.61827e-06
8 *214:12 *866:A 2.85421e-05
9 *214:12 *866:S 1.30565e-05
10 *214:12 *624:71 2.23871e-06
11 *214:12 *626:76 1.11786e-05
12 *214:12 *642:72 6.38328e-07
13 *214:14 *798:A 8.73338e-05
14 *214:14 *826:A 8.57169e-06
15 *214:14 *852:A 0
16 *214:14 *854:A 0
17 *214:14 *863:A 6.95135e-05
18 *214:14 *868:A 0
19 *214:14 *983:CK 2.48043e-05
20 *214:14 *233:48 4.23027e-05
21 *214:14 *247:10 5.15469e-05
22 *214:14 *461:10 1.9474e-05
23 *214:14 *525:10 0
24 *214:14 *559:8 4.17885e-06
25 *214:14 *627:26 0.000274798
26 *214:14 *642:10 5.40374e-05
27 *214:14 *642:12 1.45779e-05
28 *214:14 *642:14 6.32461e-06
29 *214:14 *642:99 1.14365e-05
30 *214:14 *647:79 0.000139849
31 *713:B1 *214:12 1.52097e-06
32 *720:A1 *214:12 1.44182e-05
33 *721:A2 *721:A3 2.75346e-06
34 *894:B1 *214:14 2.23161e-05
35 *909:B1 *214:12 2.65002e-06
36 *981:D *214:14 0
37 *997:D *214:14 2.78991e-05
38 *205:75 *214:14 0.000182375
*RES
1 *720:ZN *214:12 22.6071 
2 *214:12 *214:14 110.179 
3 *214:14 *721:A3 11.25 
*END

*D_NET *215 0.000349917
*CONN
*I *722:A I *D AOI21_X1
*I *721:ZN O *D NOR3_X1
*CAP
1 *722:A 0.000117429
2 *721:ZN 0.000117429
3 *722:A *653:A 4.9036e-06
4 *722:A *959:RN 3.46596e-06
5 *722:A *592:8 0
6 *722:A *647:79 1.69241e-05
7 *722:A *647:92 2.48069e-05
8 *722:B1 *722:A 1.27967e-05
9 *722:B2 *722:A 5.20238e-07
10 *966:D *722:A 3.32955e-05
11 *1040:D *722:A 6.67501e-06
12 *184:92 *722:A 1.16704e-05
*RES
1 *721:ZN *722:A 34.3571 
*END

*D_NET *216 0.00902395
*CONN
*I *835:S I *D MUX2_X1
*I *724:S I *D MUX2_X1
*I *837:S I *D MUX2_X1
*I *840:S I *D MUX2_X1
*I *838:S I *D MUX2_X1
*I *834:S I *D MUX2_X1
*I *836:S I *D MUX2_X1
*I *839:S I *D MUX2_X1
*I *723:ZN O *D NOR2_X1
*CAP
1 *835:S 0.000231003
2 *724:S 1.13131e-05
3 *837:S 4.04129e-05
4 *840:S 0
5 *838:S 7.49206e-05
6 *834:S 0
7 *836:S 0
8 *839:S 0.000111355
9 *723:ZN 0.000234297
10 *216:143 0.000389497
11 *216:128 0.000187594
12 *216:126 0.000362243
13 *216:104 0.00017095
14 *216:102 0.000275553
15 *216:98 0.000337862
16 *216:81 0.000266317
17 *216:73 0.000527301
18 *216:69 0.000185761
19 *216:24 0.000365361
20 *216:18 0.000359621
21 *724:S *607:165 2.05656e-05
22 *835:S *703:A1 2.68654e-05
23 *835:S *746:A 7.44372e-05
24 *835:S *887:B2 1.04928e-05
25 *835:S *620:18 0.000132272
26 *837:S *603:137 3.66859e-06
27 *837:S *620:18 7.07895e-05
28 *838:S *770:A 2.94435e-05
29 *838:S *838:A 7.83346e-05
30 *838:S *222:121 0.000118825
31 *838:S *227:106 4.44999e-05
32 *838:S *604:76 2.46673e-05
33 *838:S *606:178 7.772e-05
34 *839:S *836:A 7.72537e-06
35 *839:S *839:A 1.10542e-05
36 *839:S *938:A1 1.66756e-05
37 *839:S *1035:CK 2.39679e-06
38 *839:S *542:10 4.19724e-05
39 *839:S *618:16 6.57609e-06
40 *839:S *635:27 2.12383e-05
41 *839:S *635:35 0.00010731
42 *216:18 *731:A2 5.80232e-06
43 *216:18 *1203:A 1.62742e-05
44 *216:18 *221:27 0.000100016
45 *216:18 *231:14 8.59544e-06
46 *216:24 *726:A1 1.97627e-05
47 *216:24 *836:A 4.47776e-06
48 *216:24 *979:CK 1.55645e-05
49 *216:24 *1035:CK 2.06148e-05
50 *216:24 *539:8 8.30233e-06
51 *216:24 *563:12 1.7644e-05
52 *216:24 *602:118 1.28122e-06
53 *216:24 *611:70 1.06702e-05
54 *216:24 *618:12 6.22254e-05
55 *216:24 *630:16 0
56 *216:24 *635:10 1.87956e-05
57 *216:24 *635:119 1.71877e-05
58 *216:69 *731:A2 1.43608e-05
59 *216:69 *827:B 0.000104932
60 *216:69 *222:14 4.10264e-05
61 *216:69 *620:12 3.28575e-07
62 *216:69 *621:12 3.1659e-05
63 *216:69 *621:25 4.27863e-05
64 *216:69 *625:14 7.97612e-07
65 *216:73 *827:B 5.62964e-05
66 *216:73 *879:A1 4.10189e-05
67 *216:73 *883:A1 2.52965e-06
68 *216:73 *513:10 2.63274e-05
69 *216:73 *600:77 2.35492e-06
70 *216:81 *834:A 6.43172e-05
71 *216:81 *834:B 1.27666e-06
72 *216:81 *879:A1 1.79559e-06
73 *216:81 *225:20 0.000126592
74 *216:81 *640:14 1.40722e-05
75 *216:98 *834:A 0
76 *216:98 *834:B 4.99529e-05
77 *216:98 *880:B2 1.43807e-05
78 *216:98 *883:A1 3.34221e-05
79 *216:98 *883:A4 1.95884e-05
80 *216:98 *224:57 6.40475e-05
81 *216:98 *225:20 8.38851e-06
82 *216:98 *553:10 4.08507e-06
83 *216:98 *633:367 4.17433e-06
84 *216:102 *880:B2 2.72876e-05
85 *216:102 *225:20 1.19839e-05
86 *216:102 *225:26 8.15486e-05
87 *216:102 *525:10 1.72757e-05
88 *216:102 *600:37 1.86809e-06
89 *216:104 *222:121 0.000466284
90 *216:104 *604:76 2.78068e-05
91 *216:104 *606:178 5.59765e-05
92 *216:126 *788:A 1.96635e-05
93 *216:126 *980:CK 3.76609e-05
94 *216:126 *627:16 5.35383e-05
95 *216:126 *633:175 4.25665e-05
96 *216:126 *640:10 8.20084e-06
97 *216:126 *640:14 1.52463e-06
98 *216:143 *620:18 0.000408504
99 *685:A1 *216:69 3.62253e-05
100 *703:A2 *835:S 5.98561e-06
101 *723:A1 *216:18 4.24456e-05
102 *879:A2 *216:69 1.88334e-06
103 *891:B1 *835:S 0.000190934
104 *975:D *216:24 2.06764e-05
105 *985:D *216:81 4.12833e-06
106 *1011:D *216:24 0.000209
107 *1013:D *838:S 3.01743e-06
108 *1014:D *839:S 2.52965e-06
109 *173:8 *216:18 8.26658e-06
110 *177:27 *216:18 7.72537e-06
111 *177:29 *216:18 9.26123e-06
112 *178:62 *216:69 9.3409e-06
113 *178:70 *216:69 1.17005e-05
114 *178:113 *835:S 1.69426e-06
115 *178:115 *835:S 0
116 *188:126 *216:126 0.000172342
117 *190:142 *837:S 9.89573e-06
118 *190:142 *216:143 3.9783e-06
119 *193:20 *216:126 6.17734e-06
120 *193:32 *216:126 1.00408e-05
121 *196:12 *216:126 5.33967e-05
122 *196:20 *216:69 6.5385e-05
123 *196:76 *835:S 3.04286e-05
124 *196:76 *216:143 0.000121834
125 *196:95 *835:S 1.17127e-05
126 *199:37 *216:104 0.000342704
127 *202:27 *837:S 3.9107e-06
128 *205:16 *216:24 5.69678e-05
129 *208:22 *216:81 2.54818e-05
130 *208:22 *216:126 7.76879e-05
131 *211:10 *216:69 0
132 *212:32 *216:81 4.88901e-05
*RES
1 *723:ZN *216:18 34.3571 
2 *216:18 *216:24 41.7857 
3 *216:24 *839:S 30.0714 
4 *216:24 *836:S 5 
5 *723:ZN *216:69 44.25 
6 *216:69 *216:73 12.75 
7 *216:73 *216:81 22.3214 
8 *216:81 *834:S 5 
9 *216:81 *216:98 29.9286 
10 *216:98 *216:102 26.25 
11 *216:102 *216:104 25.3572 
12 *216:104 *838:S 24.5 
13 *216:104 *840:S 10 
14 *216:73 *216:126 47.7857 
15 *216:126 *216:128 5 
16 *216:128 *837:S 17.3229 
17 *216:128 *216:143 9.45 
18 *216:143 *724:S 16.2143 
19 *216:143 *835:S 43.2929 
*END

*D_NET *217 0.00229728
*CONN
*I *733:A2 I *D NOR3_X1
*I *957:B I *D XNOR2_X1
*I *745:A3 I *D NOR3_X1
*I *747:A4 I *D NOR4_X2
*I *755:A3 I *D NOR3_X1
*I *727:A2 I *D NOR2_X1
*I *728:A1 I *D NOR2_X1
*I *725:ZN O *D NAND3_X1
*CAP
1 *733:A2 0
2 *957:B 0
3 *745:A3 9.87526e-05
4 *747:A4 5.15977e-05
5 *755:A3 0
6 *727:A2 1.77794e-05
7 *728:A1 8.71307e-06
8 *725:ZN 3.04126e-05
9 *217:55 0.000184555
10 *217:48 9.66962e-05
11 *217:35 0.00017634
12 *217:29 0.000140688
13 *217:23 0.000123661
14 *217:10 0.000118168
15 *727:A2 *265:12 1.78091e-05
16 *745:A3 *1203:A 4.22802e-05
17 *745:A3 *622:38 0
18 *745:A3 *629:10 5.41015e-05
19 *747:A4 *669:A 1.60071e-05
20 *747:A4 *747:A3 7.72792e-06
21 *747:A4 *230:8 3.82563e-06
22 *747:A4 *230:31 5.8669e-06
23 *747:A4 *611:70 2.00057e-05
24 *747:A4 *612:80 0.000130284
25 *217:10 *725:A2 3.19164e-07
26 *217:10 *609:16 2.86475e-06
27 *217:10 *616:20 0
28 *217:23 *680:A1 3.64233e-05
29 *217:23 *728:A2 4.78854e-06
30 *217:23 *228:10 0
31 *217:29 *728:A2 5.64879e-06
32 *217:29 *957:A 6.92191e-05
33 *217:29 *223:14 3.0227e-05
34 *217:29 *228:10 0
35 *217:29 *638:36 2.61469e-06
36 *217:29 *638:47 0
37 *217:35 *676:A1 0
38 *217:35 *957:A 0
39 *217:35 *638:36 3.38004e-05
40 *217:48 *265:12 7.48213e-05
41 *676:A2 *217:35 2.55787e-06
42 *680:A3 *217:23 4.11048e-05
43 *725:A3 *217:10 2.75346e-06
44 *725:A3 *217:23 9.37114e-06
45 *730:A4 *217:23 1.86809e-06
46 *733:A1 *217:23 9.07104e-05
47 *739:A1 *745:A3 5.46411e-05
48 *745:A1 *745:A3 1.05574e-05
49 *745:A2 *745:A3 1.25215e-05
50 *755:A1 *745:A3 1.39634e-05
51 *755:A1 *217:55 1.02284e-05
52 *755:A2 *727:A2 6.68461e-05
53 *755:A2 *217:48 0.00021524
54 *755:A2 *217:55 7.19036e-06
55 *903:B1 *727:A2 1.72405e-05
56 *150:39 *747:A4 4.85259e-07
57 *158:14 *217:35 7.72537e-06
58 *180:23 *745:A3 7.75272e-05
59 *180:23 *217:55 4.10196e-05
60 *206:40 *747:A4 7.72792e-06
*RES
1 *725:ZN *217:10 8.78572 
2 *217:10 *728:A1 5.92857 
3 *217:10 *217:23 15.4286 
4 *217:23 *217:29 11.9286 
5 *217:29 *217:35 15.1786 
6 *217:35 *727:A2 13.6429 
7 *217:35 *217:48 16.7857 
8 *217:48 *755:A3 5 
9 *217:48 *217:55 4.25 
10 *217:55 *747:A4 23.4643 
11 *217:55 *745:A3 29.9643 
12 *217:29 *957:B 5 
13 *217:23 *733:A2 10 
*END

*D_NET *218 0.002301
*CONN
*I *733:A3 I *D NOR3_X1
*I *728:A2 I *D NOR2_X1
*I *751:A2 I *D NOR2_X1
*I *731:A1 I *D OR2_X1
*I *737:A2 I *D NOR2_X1
*I *726:ZN O *D NAND2_X1
*CAP
1 *733:A3 0
2 *728:A2 6.42332e-05
3 *751:A2 8.71307e-06
4 *731:A1 3.36443e-05
5 *737:A2 5.72698e-05
6 *726:ZN 0.000180544
7 *218:60 0.000170954
8 *218:18 0.000219036
9 *218:8 0.000210659
10 *728:A2 *680:A1 6.5574e-06
11 *728:A2 *221:18 7.4793e-06
12 *728:A2 *223:14 1.56291e-05
13 *728:A2 *616:20 3.76691e-05
14 *728:A2 *638:47 2.26304e-06
15 *731:A1 *731:A2 2.39679e-06
16 *731:A1 *626:14 0.000110825
17 *731:A1 *638:10 2.43582e-05
18 *731:A1 *638:12 9.01712e-05
19 *737:A2 *731:A2 8.64288e-07
20 *737:A2 *225:63 1.15252e-05
21 *737:A2 *507:14 9.62051e-07
22 *218:8 *726:A1 3.3408e-05
23 *218:8 *905:A1 7.16188e-07
24 *218:8 *905:A2 1.60038e-06
25 *218:8 *265:8 2.58289e-05
26 *218:18 *759:B 7.72792e-06
27 *218:18 *864:B 7.19036e-06
28 *218:18 *905:A1 4.15825e-06
29 *218:18 *905:A3 1.18232e-06
30 *218:18 *1099:CK 3.3278e-05
31 *218:18 *225:63 3.69346e-06
32 *218:18 *232:8 3.7666e-06
33 *218:18 *602:168 3.16101e-05
34 *218:18 *626:14 0.000116573
35 *218:18 *628:10 9.561e-06
36 *218:18 *638:12 9.93327e-05
37 *218:60 *676:A1 3.09411e-06
38 *218:60 *957:A 1.61774e-05
39 *218:60 *221:18 5.11133e-05
40 *218:60 *221:27 2.33716e-05
41 *218:60 *223:14 1.0303e-05
42 *218:60 *265:12 1.78091e-05
43 *676:A2 *218:60 1.59582e-06
44 *680:A2 *728:A2 7.72537e-06
45 *683:A1 *218:60 6.40394e-05
46 *685:A1 *731:A1 7.19036e-06
47 *733:A1 *728:A2 5.69408e-05
48 *733:A1 *218:60 8.43215e-07
49 *1043:D *218:18 2.1307e-05
50 *1099:D *218:18 1.52083e-06
51 *156:10 *218:60 0.000101588
52 *173:8 *218:60 1.51547e-06
53 *178:10 *737:A2 2.07091e-05
54 *179:10 *218:60 9.05253e-06
55 *179:18 *218:8 8.49592e-06
56 *179:18 *218:18 2.08953e-05
57 *180:23 *731:A1 1.68643e-06
58 *180:38 *737:A2 0
59 *206:18 *218:60 0.000208212
60 *217:23 *728:A2 4.78854e-06
61 *217:29 *728:A2 5.64879e-06
*RES
1 *726:ZN *218:8 14.1786 
2 *218:8 *218:18 24.3214 
3 *218:18 *737:A2 16.25 
4 *218:18 *731:A1 17.1071 
5 *218:8 *751:A2 5.92857 
6 *726:ZN *218:60 35.1072 
7 *218:60 *728:A2 24.3214 
8 *218:60 *733:A3 5 
*END

*D_NET *219 0.00014883
*CONN
*I *958:B I *D XNOR2_X1
*I *727:ZN O *D NOR2_X1
*CAP
1 *958:B 2.42744e-05
2 *727:ZN 2.42744e-05
3 *958:B *612:34 6.76378e-05
4 *958:B *630:16 2.48043e-05
5 *156:10 *958:B 6.48216e-07
6 *158:14 *958:B 7.19036e-06
*RES
1 *727:ZN *958:B 24.3929 
*END

*D_NET *220 0.000937076
*CONN
*I *729:B I *D XOR2_X1
*I *728:ZN O *D NOR2_X1
*CAP
1 *729:B 0.000269812
2 *728:ZN 2.82538e-05
3 *220:8 0.000298066
4 *729:B *650:A 2.67697e-05
5 *729:B *729:A 1.88334e-06
6 *729:B *968:RN 8.33759e-07
7 *729:B *968:CK 0
8 *729:B *971:CK 2.37916e-06
9 *729:B *973:RN 6.78918e-06
10 *729:B *226:16 0.000152413
11 *729:B *599:139 1.08366e-05
12 *729:B *609:8 2.04476e-05
13 *729:B *609:10 9.19249e-05
14 *729:B *609:16 2.16578e-05
15 *220:8 *654:A 0
16 *220:8 *609:16 0
17 *220:8 *616:20 5.00979e-06
18 *677:B2 *729:B 0
19 *170:24 *729:B 0
*RES
1 *728:ZN *220:8 12.75 
2 *220:8 *729:B 48.25 
*END

*D_NET *221 0.00182287
*CONN
*I *731:A2 I *D OR2_X1
*I *741:A2 I *D NOR2_X1
*I *735:A2 I *D NOR2_X1
*I *753:A3 I *D NOR3_X1
*I *730:ZN O *D NAND4_X1
*CAP
1 *731:A2 9.22232e-05
2 *741:A2 4.02028e-05
3 *735:A2 7.08748e-06
4 *753:A3 0
5 *730:ZN 0.000145494
6 *221:31 6.7067e-05
7 *221:27 0.000274048
8 *221:18 0.000307541
9 *731:A2 *222:10 1.74145e-06
10 *731:A2 *222:14 5.33332e-06
11 *731:A2 *225:63 7.72792e-06
12 *731:A2 *231:27 0
13 *731:A2 *621:12 4.32144e-07
14 *731:A2 *638:12 4.12796e-06
15 *741:A2 *224:10 0.000128203
16 *741:A2 *229:10 4.77467e-05
17 *741:A2 *232:8 7.72792e-06
18 *741:A2 *638:25 7.19036e-06
19 *221:18 *680:A1 2.31472e-05
20 *221:18 *753:A1 2.25089e-06
21 *221:18 *223:14 4.84981e-06
22 *221:18 *599:137 1.10536e-05
23 *221:18 *611:12 5.20275e-05
24 *221:18 *638:47 2.10417e-05
25 *221:27 *753:A1 1.21774e-06
26 *221:27 *1165:A 1.82068e-05
27 *221:27 *616:16 0.000109662
28 *221:31 *231:27 0
29 *680:A2 *221:18 2.27341e-05
30 *681:A1 *735:A2 2.16072e-07
31 *685:A1 *731:A2 3.37286e-06
32 *723:A1 *731:A2 1.33042e-06
33 *723:A2 *731:A2 2.42486e-05
34 *728:A2 *221:18 7.4793e-06
35 *731:A1 *731:A2 2.39679e-06
36 *733:A1 *221:18 8.80285e-06
37 *735:A1 *735:A2 8.43215e-07
38 *735:A1 *221:27 1.25215e-05
39 *737:A2 *731:A2 8.64288e-07
40 *153:15 *221:18 2.09145e-06
41 *173:8 *221:27 2.09678e-05
42 *174:20 *221:18 5.2817e-05
43 *177:18 *221:27 2.75119e-06
44 *177:27 *221:27 2.90685e-06
45 *178:10 *731:A2 0
46 *180:23 *731:A2 7.26402e-05
47 *180:38 *731:A2 1.87369e-06
48 *216:18 *731:A2 5.80232e-06
49 *216:18 *221:27 0.000100016
50 *216:69 *731:A2 1.43608e-05
51 *218:60 *221:18 5.11133e-05
52 *218:60 *221:27 2.33716e-05
*RES
1 *730:ZN *221:18 35.4286 
2 *221:18 *753:A3 5 
3 *221:18 *221:27 22.1786 
4 *221:27 *221:31 2.35714 
5 *221:31 *735:A2 5.75 
6 *221:31 *741:A2 22.7857 
7 *221:27 *731:A2 26 
*END

*D_NET *222 0.0093577
*CONN
*I *764:S I *D MUX2_X1
*I *765:S I *D MUX2_X1
*I *770:S I *D MUX2_X1
*I *769:S I *D MUX2_X1
*I *732:S I *D MUX2_X1
*I *768:S I *D MUX2_X1
*I *767:S I *D MUX2_X1
*I *766:S I *D MUX2_X1
*I *731:ZN O *D OR2_X1
*CAP
1 *764:S 0.000136685
2 *765:S 0
3 *770:S 0
4 *769:S 7.19392e-06
5 *732:S 0
6 *768:S 0.000215224
7 *767:S 1.01643e-05
8 *766:S 0.000131599
9 *731:ZN 2.85059e-05
10 *222:121 0.000297056
11 *222:111 0.000308233
12 *222:109 0.00072203
13 *222:64 0.000629853
14 *222:37 0.000680071
15 *222:18 0.000509284
16 *222:16 0.0002645
17 *222:14 0.000383117
18 *222:10 0.000850893
19 *764:S *765:B 9.21315e-05
20 *764:S *886:A1 7.19036e-06
21 *764:S *886:B2 1.8707e-05
22 *764:S *230:35 2.86475e-06
23 *764:S *490:6 1.92715e-05
24 *764:S *498:6 3.59789e-05
25 *764:S *600:155 3.65322e-06
26 *764:S *601:81 0
27 *764:S *601:83 0
28 *764:S *627:35 1.88001e-05
29 *766:S *802:B 3.84002e-06
30 *766:S *858:B 1.55508e-05
31 *766:S *232:38 1.26049e-06
32 *766:S *603:42 1.73568e-05
33 *766:S *618:37 1.32558e-05
34 *767:S *767:A 2.75346e-06
35 *767:S *767:B 2.8801e-06
36 *767:S *603:183 4.97191e-06
37 *767:S *626:57 8.26038e-06
38 *768:S *732:B 2.39679e-06
39 *768:S *768:A 3.22834e-06
40 *768:S *796:B 0
41 *768:S *1061:CK 1.43542e-05
42 *768:S *227:106 6.0887e-06
43 *768:S *232:67 0
44 *768:S *607:9 5.16632e-05
45 *768:S *607:20 2.39679e-06
46 *768:S *644:66 1.17793e-05
47 *769:S *1003:CK 1.32348e-05
48 *222:10 *638:10 2.04312e-06
49 *222:14 *225:63 1.14065e-05
50 *222:14 *232:14 4.05645e-05
51 *222:14 *232:113 1.89735e-05
52 *222:14 *638:12 1.20751e-06
53 *222:16 *232:14 4.80851e-05
54 *222:18 *802:B 2.76448e-06
55 *222:18 *910:A1 6.48968e-05
56 *222:18 *225:80 1.20751e-06
57 *222:18 *232:14 2.40034e-05
58 *222:18 *232:16 1.35808e-05
59 *222:18 *232:38 2.73538e-06
60 *222:18 *580:8 0.000140856
61 *222:18 *605:79 1.39858e-05
62 *222:37 *232:38 9.7778e-05
63 *222:37 *617:24 9.75679e-05
64 *222:37 *617:43 3.28029e-05
65 *222:64 *716:A1 6.60575e-05
66 *222:64 *732:B 0.000192285
67 *222:64 *738:B 3.28367e-05
68 *222:64 *752:A 0
69 *222:64 *607:9 2.39679e-06
70 *222:64 *607:20 3.94703e-05
71 *222:64 *607:33 0
72 *222:64 *617:43 5.45642e-05
73 *222:64 *626:76 2.94485e-05
74 *222:109 *232:132 0
75 *222:109 *233:23 5.66802e-05
76 *222:109 *234:33 1.01261e-05
77 *222:109 *625:14 0.00039073
78 *222:109 *625:33 0.000525784
79 *222:109 *625:41 1.0807e-05
80 *222:109 *632:36 6.1631e-05
81 *222:109 *633:185 1.59171e-05
82 *222:111 *772:B 1.72426e-05
83 *222:111 *601:89 0
84 *222:111 *621:48 0
85 *222:121 *772:B 0.000121739
86 *222:121 *621:48 0
87 *731:A2 *222:10 1.74145e-06
88 *731:A2 *222:14 5.33332e-06
89 *838:S *222:121 0.000118825
90 *899:B1 *766:S 2.27914e-05
91 *910:A2 *222:37 4.66497e-06
92 *1043:D *222:14 1.19634e-05
93 *1052:D *222:18 1.33202e-05
94 *1061:D *768:S 2.82896e-05
95 *1075:D *222:14 0.000154734
96 *1086:D *769:S 5.52959e-06
97 *178:20 *222:16 1.53304e-05
98 *178:20 *222:18 7.17389e-06
99 *180:23 *222:10 2.08098e-06
100 *181:10 *222:14 0.00012383
101 *181:80 *222:10 1.31694e-05
102 *181:80 *222:14 8.46678e-06
103 *190:97 *222:121 2.39679e-06
104 *190:101 *222:121 1.68643e-06
105 *191:82 *222:121 7.72537e-06
106 *199:33 *764:S 1.03094e-05
107 *199:33 *222:111 2.27416e-06
108 *199:33 *222:121 2.22337e-06
109 *199:37 *222:121 1.25429e-05
110 *199:63 *222:37 3.99062e-05
111 *199:63 *222:64 9.21861e-05
112 *199:65 *222:37 3.13008e-05
113 *206:52 *222:109 0
114 *209:31 *764:S 0
115 *211:10 *222:14 4.69746e-05
116 *211:10 *222:16 0.000273001
117 *211:18 *766:S 1.66271e-07
118 *216:69 *222:14 4.10264e-05
119 *216:104 *222:121 0.000466284
*RES
1 *731:ZN *222:10 13.3929 
2 *222:10 *222:14 35.7322 
3 *222:14 *222:16 19.5893 
4 *222:16 *222:18 18.1786 
5 *222:18 *766:S 25.0714 
6 *222:18 *222:37 16.55 
7 *222:37 *767:S 16.2857 
8 *222:37 *222:64 45.2714 
9 *222:64 *768:S 40.5714 
10 *222:64 *732:S 5 
11 *222:16 *769:S 11.25 
12 *222:10 *222:109 37.3 
13 *222:109 *222:111 1.39286 
14 *222:111 *222:121 47.0357 
15 *222:121 *770:S 5 
16 *222:111 *765:S 10 
17 *222:109 *764:S 27.75 
*END

*D_NET *223 0.00581634
*CONN
*I *757:S I *D MUX2_X1
*I *761:S I *D MUX2_X1
*I *763:S I *D MUX2_X1
*I *1172:A I *D BUF_X2
*I *759:S I *D MUX2_X1
*I *762:S I *D MUX2_X1
*I *733:ZN O *D NOR3_X1
*CAP
1 *757:S 0.000200806
2 *761:S 6.07591e-06
3 *763:S 0.000187742
4 *1172:A 0.000109962
5 *759:S 0
6 *762:S 4.40726e-05
7 *733:ZN 0.000206213
8 *223:96 0.00026698
9 *223:83 0.000512685
10 *223:60 0.000581089
11 *223:43 0.000301584
12 *223:35 0.000425472
13 *223:14 0.000580456
14 *757:S *757:A 5.52692e-06
15 *757:S *772:A 8.82762e-06
16 *757:S *923:A3 4.62577e-06
17 *757:S *232:132 7.25355e-06
18 *757:S *232:138 0
19 *757:S *509:10 6.56958e-06
20 *757:S *581:10 0
21 *757:S *600:23 0
22 *757:S *648:33 0
23 *761:S *761:A 1.32323e-05
24 *761:S *621:61 1.32323e-05
25 *762:S *939:A1 7.19036e-06
26 *762:S *939:B2 3.09411e-06
27 *762:S *228:18 0.000146397
28 *762:S *617:8 2.40658e-05
29 *763:S *763:A 2.75346e-06
30 *763:S *951:A1 1.72405e-05
31 *763:S *951:B1 0
32 *763:S *952:A4 1.90208e-06
33 *763:S *543:8 0.000144818
34 *763:S *604:76 0
35 *763:S *627:47 0
36 *763:S *645:27 8.71894e-06
37 *763:S *645:29 2.02052e-05
38 *1172:A *845:B 0
39 *1172:A *845:S 1.74934e-05
40 *1172:A *291:14 6.74194e-06
41 *1172:A *607:80 1.09525e-06
42 *1172:A *607:82 0.000176046
43 *1172:A *630:52 7.27961e-06
44 *1172:A *632:56 0.000160335
45 *1172:A *643:70 1.1103e-06
46 *223:14 *957:A 2.05108e-05
47 *223:14 *974:CK 0
48 *223:14 *228:10 0
49 *223:14 *228:18 2.54476e-05
50 *223:14 *459:12 0.000157561
51 *223:14 *617:8 1.69253e-05
52 *223:14 *638:36 0
53 *223:14 *638:47 0
54 *223:35 *780:A 6.78427e-05
55 *223:35 *822:A 1.28122e-06
56 *223:35 *822:B 3.08753e-05
57 *223:35 *864:S 2.43548e-06
58 *223:35 *903:B2 3.65856e-06
59 *223:35 *903:C2 4.06955e-05
60 *223:35 *939:A1 0
61 *223:35 *940:A1 3.09411e-06
62 *223:35 *940:A4 0
63 *223:35 *941:A3 1.43238e-06
64 *223:35 *942:A 5.8311e-06
65 *223:35 *1027:CK 1.79607e-05
66 *223:35 *1075:CK 2.55787e-06
67 *223:35 *224:29 0
68 *223:35 *228:14 1.51496e-05
69 *223:35 *292:12 0.000104942
70 *223:35 *459:12 1.43238e-06
71 *223:35 *618:12 0
72 *223:43 *759:A 4.87096e-06
73 *223:43 *780:A 8.21126e-06
74 *223:43 *904:C2 2.30628e-05
75 *223:43 *905:A3 3.5628e-06
76 *223:43 *931:A1 9.00091e-05
77 *223:43 *626:22 7.72537e-06
78 *223:43 *626:31 3.47331e-05
79 *223:60 *759:A 2.75346e-06
80 *223:60 *825:B 9.57492e-07
81 *223:60 *848:A 4.95922e-06
82 *223:60 *848:S 6.75525e-06
83 *223:60 *920:A1 1.19839e-05
84 *223:60 *920:B1 7.72792e-06
85 *223:60 *923:A2 4.04707e-06
86 *223:60 *224:40 0
87 *223:60 *233:48 0
88 *223:60 *533:8 5.05929e-06
89 *223:60 *623:10 1.46241e-05
90 *223:83 *845:B 1.68643e-06
91 *223:83 *920:A1 3.78407e-05
92 *223:83 *923:A2 0.000169409
93 *223:83 *923:A4 1.32323e-05
94 *223:83 *950:A2 0
95 *223:83 *952:A3 0
96 *223:83 *604:192 6.44811e-05
97 *223:83 *604:196 0.00010616
98 *223:83 *607:82 2.49497e-05
99 *223:83 *621:61 0
100 *223:83 *643:70 1.23214e-06
101 *223:96 *923:A1 0
102 *223:96 *923:A3 1.32476e-05
103 *223:96 *604:74 0
104 *728:A2 *223:14 1.56291e-05
105 *903:B1 *223:35 0
106 *904:B1 *223:43 9.01846e-07
107 *919:B1 *763:S 0
108 *941:A1 *223:35 6.48216e-07
109 *942:B2 *223:14 0
110 *951:A2 *763:S 1.94214e-06
111 *974:D *223:14 2.23871e-06
112 *997:D *223:83 3.19821e-05
113 *1011:D *223:35 7.19036e-06
114 *1027:D *223:35 3.7117e-05
115 *1029:D *223:83 3.21622e-05
116 *1082:D *757:S 5.01029e-05
117 *1095:D *763:S 2.07643e-05
118 *1101:D *757:S 0
119 *178:12 *223:43 0
120 *181:29 *223:43 2.18038e-05
121 *181:29 *223:60 3.247e-05
122 *181:31 *223:60 1.07633e-05
123 *188:83 *223:96 0
124 *191:62 *223:60 9.34405e-05
125 *199:48 *223:83 0
126 *217:29 *223:14 3.0227e-05
127 *218:60 *223:14 1.0303e-05
128 *221:18 *223:14 4.84981e-06
*RES
1 *733:ZN *223:14 36.7143 
2 *223:14 *762:S 18.4643 
3 *223:14 *223:35 49.6072 
4 *223:35 *223:43 18.1786 
5 *223:43 *759:S 5 
6 *223:43 *223:60 40.6429 
7 *223:60 *1172:A 27 
8 *223:60 *223:83 47.0357 
9 *223:83 *763:S 32.3929 
10 *223:83 *223:96 5.67857 
11 *223:96 *761:S 11.25 
12 *223:96 *757:S 30.6072 
*END

*D_NET *224 0.00544954
*CONN
*I *824:S I *D MUX2_X1
*I *826:S I *D MUX2_X1
*I *821:S I *D MUX2_X1
*I *736:S I *D MUX2_X1
*I *823:S I *D MUX2_X1
*I *820:S I *D MUX2_X1
*I *825:S I *D MUX2_X1
*I *822:S I *D MUX2_X1
*I *735:ZN O *D NOR2_X1
*CAP
1 *824:S 1.28679e-05
2 *826:S 7.36591e-05
3 *821:S 0.00014345
4 *736:S 0
5 *823:S 0.000319723
6 *820:S 6.83478e-06
7 *825:S 0
8 *822:S 0
9 *735:ZN 0.000147694
10 *224:96 0.000112284
11 *224:63 0.000373169
12 *224:57 0.000443836
13 *224:44 0.000360002
14 *224:40 0.000260709
15 *224:29 0.000496874
16 *224:10 0.000515844
17 *820:S *997:CK 3.09411e-06
18 *820:S *233:48 0
19 *821:S *821:B 6.38328e-07
20 *821:S *894:B2 0
21 *821:S *978:CK 0.000104713
22 *821:S *627:16 0
23 *821:S *627:26 0
24 *823:S *742:A 1.50729e-05
25 *823:S *742:B 5.69818e-05
26 *823:S *823:B 4.44339e-06
27 *823:S *865:B 0
28 *823:S *1028:CK 7.03073e-06
29 *823:S *460:6 0
30 *823:S *607:99 6.07323e-06
31 *823:S *627:16 0
32 *823:S *631:55 0
33 *824:S *845:B 9.58715e-06
34 *824:S *950:A2 3.93732e-06
35 *824:S *633:285 0
36 *824:S *643:35 7.19036e-06
37 *826:S *826:A 2.75346e-06
38 *826:S *1208:A 0.000118946
39 *826:S *629:48 2.45782e-05
40 *826:S *633:285 0
41 *826:S *643:35 6.36399e-05
42 *224:10 *822:A 3.02296e-05
43 *224:10 *864:B 4.42834e-05
44 *224:10 *229:10 4.76165e-05
45 *224:10 *555:10 1.80327e-05
46 *224:29 *780:A 0
47 *224:29 *822:A 2.39679e-06
48 *224:29 *822:B 3.51992e-06
49 *224:29 *825:A 3.83825e-05
50 *224:29 *825:B 3.19164e-07
51 *224:29 *935:A2 0
52 *224:29 *1030:CK 0
53 *224:29 *1075:CK 9.74263e-06
54 *224:29 *291:14 0
55 *224:29 *630:52 8.62615e-06
56 *224:29 *633:25 6.04302e-06
57 *224:29 *633:29 1.05022e-05
58 *224:29 *633:46 1.21556e-05
59 *224:29 *637:12 5.35117e-06
60 *224:29 *637:109 5.37072e-06
61 *224:40 *845:B 0.00011365
62 *224:40 *950:A2 1.40461e-05
63 *224:40 *533:8 4.32144e-07
64 *224:40 *630:52 7.77973e-06
65 *224:40 *643:39 4.88571e-05
66 *224:44 *622:63 2.49165e-05
67 *224:44 *633:281 8.97624e-06
68 *224:57 *736:A 0
69 *224:57 *863:S 5.79131e-06
70 *224:57 *883:A3 0.000153356
71 *224:57 *883:A4 2.09193e-05
72 *224:57 *977:CK 0
73 *224:57 *225:20 4.21777e-05
74 *224:57 *226:61 0.0001934
75 *224:57 *230:31 5.47523e-05
76 *224:57 *622:63 2.57702e-05
77 *224:57 *633:367 6.02371e-06
78 *224:63 *607:99 6.38328e-07
79 *224:63 *607:112 6.50402e-06
80 *224:63 *627:16 0
81 *224:96 *845:B 3.97093e-05
82 *224:96 *643:35 2.92304e-05
83 *224:96 *643:39 1.26998e-05
84 *741:A2 *224:10 0.000128203
85 *808:S *224:10 4.32319e-05
86 *932:B1 *224:29 0
87 *980:D *823:S 0
88 *990:D *224:29 1.76665e-06
89 *1025:D *224:44 6.31374e-06
90 *1025:D *224:57 2.77222e-05
91 *1026:D *821:S 3.32724e-06
92 *1028:D *823:S 6.85848e-05
93 *1029:D *224:44 2.79697e-05
94 *1030:D *224:29 0
95 *1075:D *224:29 3.69387e-05
96 *179:18 *224:10 5.34211e-05
97 *179:29 *224:10 0.000117646
98 *190:22 *224:10 2.04752e-05
99 *190:97 *826:S 7.77781e-06
100 *191:62 *224:40 8.43215e-07
101 *206:62 *826:S 9.34432e-05
102 *212:65 *821:S 0
103 *212:65 *823:S 0
104 *212:65 *224:63 0
105 *216:98 *224:57 6.40475e-05
106 *223:35 *224:29 0
107 *223:60 *224:40 0
*RES
1 *735:ZN *224:10 39 
2 *224:10 *822:S 5 
3 *224:10 *224:29 38.1072 
4 *224:29 *825:S 5 
5 *224:29 *224:40 16.7857 
6 *224:40 *224:44 16.7857 
7 *224:44 *820:S 10.75 
8 *224:44 *224:57 39.1786 
9 *224:57 *224:63 5.92857 
10 *224:63 *823:S 40.3214 
11 *224:63 *736:S 5 
12 *224:57 *821:S 20.75 
13 *224:40 *224:96 4.25 
14 *224:96 *826:S 29.8929 
15 *224:96 *824:S 6.75 
*END

*D_NET *225 0.00842632
*CONN
*I *780:S I *D MUX2_X1
*I *738:S I *D MUX2_X1
*I *784:S I *D MUX2_X1
*I *782:S I *D MUX2_X1
*I *781:S I *D MUX2_X1
*I *783:S I *D MUX2_X1
*I *779:S I *D MUX2_X1
*I *778:S I *D MUX2_X1
*I *737:ZN O *D NOR2_X1
*CAP
1 *780:S 0
2 *738:S 4.00372e-05
3 *784:S 0.000326782
4 *782:S 0
5 *781:S 5.36958e-06
6 *783:S 0
7 *779:S 0.000261524
8 *778:S 0
9 *737:ZN 0.000194097
10 *225:101 0.000416753
11 *225:97 0.000483993
12 *225:84 0.000373081
13 *225:80 0.000346381
14 *225:67 0.000397681
15 *225:63 0.000206854
16 *225:28 0.000261524
17 *225:26 0.000290343
18 *225:20 0.000561823
19 *225:12 0.000323749
20 *738:S *738:A 1.13571e-05
21 *738:S *488:6 6.56185e-06
22 *779:S *778:A 6.54953e-05
23 *779:S *842:A 7.72537e-06
24 *779:S *842:B 2.77383e-05
25 *779:S *965:RN 7.4083e-06
26 *779:S *1074:CK 0
27 *779:S *589:6 3.09143e-06
28 *779:S *589:27 4.9678e-06
29 *779:S *591:8 0
30 *779:S *600:13 3.19164e-07
31 *781:S *781:A 7.19036e-06
32 *781:S *603:31 3.09411e-06
33 *784:S *768:B 7.65847e-06
34 *784:S *777:S 0
35 *784:S *782:A 7.72792e-06
36 *784:S *784:A 2.5922e-05
37 *784:S *789:B 0
38 *784:S *796:A 1.5896e-05
39 *784:S *859:A 1.04588e-05
40 *784:S *861:B 7.19036e-06
41 *784:S *926:A1 3.09143e-06
42 *784:S *926:B1 5.97433e-05
43 *784:S *926:B2 6.96315e-05
44 *784:S *927:A1 0
45 *784:S *945:A1 4.10663e-05
46 *784:S *945:A2 0
47 *784:S *945:B1 0
48 *784:S *1069:CK 0
49 *784:S *1087:CK 0
50 *784:S *487:6 0
51 *784:S *495:8 2.96406e-05
52 *784:S *604:122 9.3226e-07
53 *784:S *627:71 0
54 *784:S *644:47 0
55 *225:12 *507:14 0
56 *225:12 *571:10 2.1327e-06
57 *225:20 *855:B 7.19036e-06
58 *225:20 *880:B2 0.000115208
59 *225:20 *883:A1 0
60 *225:20 *1009:CK 5.84536e-05
61 *225:20 *1043:CK 8.03349e-06
62 *225:20 *231:27 1.38642e-05
63 *225:20 *231:31 0
64 *225:20 *507:14 2.42461e-05
65 *225:20 *600:37 7.52021e-05
66 *225:20 *622:63 1.45456e-05
67 *225:20 *633:6 3.96127e-06
68 *225:20 *633:13 3.05398e-06
69 *225:20 *633:268 3.58099e-06
70 *225:20 *633:275 4.48278e-06
71 *225:26 *772:A 1.43238e-06
72 *225:26 *772:B 0
73 *225:26 *1101:CK 3.19164e-07
74 *225:26 *226:100 1.86937e-06
75 *225:26 *232:138 0.000157414
76 *225:26 *599:238 9.5257e-06
77 *225:26 *600:29 0.000342545
78 *225:26 *600:37 8.26038e-06
79 *225:26 *604:59 0
80 *225:63 *1099:CK 4.16464e-05
81 *225:63 *232:14 0.000227252
82 *225:63 *232:113 9.22658e-05
83 *225:63 *602:153 7.35408e-06
84 *225:63 *602:166 2.17999e-05
85 *225:63 *638:12 0.00012957
86 *225:67 *232:14 0.000184318
87 *225:67 *602:142 1.63486e-05
88 *225:67 *602:153 2.84765e-06
89 *225:67 *633:46 2.26705e-05
90 *225:80 *769:B 0
91 *225:80 *781:A 2.40557e-06
92 *225:80 *783:A 6.2527e-05
93 *225:80 *802:B 4.78398e-05
94 *225:80 *832:A 1.46547e-05
95 *225:80 *1003:CK 6.07549e-06
96 *225:80 *484:8 9.12482e-06
97 *225:80 *580:8 2.59296e-05
98 *225:80 *603:42 7.59822e-06
99 *225:80 *605:79 0.00011676
100 *225:80 *605:90 0.000265807
101 *225:80 *605:146 2.89018e-05
102 *225:80 *636:10 1.50869e-06
103 *225:80 *636:12 2.94407e-06
104 *225:80 *636:14 2.01697e-06
105 *225:84 *781:A 9.71956e-07
106 *225:84 *603:42 3.59429e-05
107 *225:97 *716:B2 7.67361e-06
108 *225:97 *732:B 1.11435e-06
109 *225:97 *738:A 0
110 *225:97 *750:A 5.69366e-05
111 *225:97 *781:A 3.35822e-05
112 *225:97 *858:A 5.84468e-05
113 *225:97 *907:B2 0
114 *225:97 *908:A1 2.35379e-05
115 *225:97 *496:12 3.05398e-06
116 *225:97 *504:6 1.40196e-06
117 *225:97 *516:8 3.29087e-05
118 *225:97 *520:6 3.89107e-05
119 *225:97 *603:9 3.65322e-06
120 *225:97 *603:21 0.000178324
121 *225:97 *603:31 1.38323e-05
122 *225:97 *618:58 5.12781e-05
123 *225:97 *618:79 1.79581e-05
124 *225:101 *738:A 0
125 *225:101 *782:A 1.43037e-05
126 *225:101 *1077:CK 4.88546e-05
127 *225:101 *604:122 8.43215e-07
128 *225:101 *618:79 1.93179e-05
129 *731:A2 *225:63 7.72792e-06
130 *737:A2 *225:63 1.15252e-05
131 *879:A2 *225:12 8.76325e-06
132 *879:A2 *225:20 2.76814e-05
133 *900:B1 *225:80 5.1203e-06
134 *926:A2 *784:S 0
135 *930:B2 *779:S 5.52959e-06
136 *985:D *225:20 6.54288e-06
137 *991:D *784:S 0
138 *1053:D *225:26 4.80114e-06
139 *1069:D *784:S 3.90891e-05
140 *1073:D *779:S 2.86475e-06
141 *1076:D *225:80 4.08736e-05
142 *1076:D *225:97 3.80762e-06
143 *1077:D *225:101 0
144 *1088:D *225:97 1.44005e-05
145 *1094:D *225:80 6.60034e-05
146 *1099:D *225:63 2.79474e-05
147 *178:62 *225:12 0
148 *178:62 *225:20 0
149 *180:38 *225:63 3.92729e-06
150 *184:146 *779:S 2.08098e-06
151 *188:106 *225:26 8.00929e-05
152 *193:42 *225:20 1.45884e-05
153 *196:20 *225:12 5.68463e-07
154 *196:28 *225:80 0
155 *196:103 *779:S 0
156 *196:105 *779:S 0
157 *212:32 *225:20 1.31487e-05
158 *216:81 *225:20 0.000126592
159 *216:98 *225:20 8.38851e-06
160 *216:102 *225:20 1.19839e-05
161 *216:102 *225:26 8.15486e-05
162 *218:18 *225:63 3.69346e-06
163 *222:14 *225:63 1.14065e-05
164 *222:18 *225:80 1.20751e-06
165 *224:57 *225:20 4.21777e-05
*RES
1 *737:ZN *225:12 19.7143 
2 *225:12 *225:20 49.0357 
3 *225:20 *225:26 49.5714 
4 *225:26 *225:28 5 
5 *225:28 *778:S 5 
6 *225:28 *779:S 44.3929 
7 *737:ZN *225:63 33.8572 
8 *225:63 *225:67 16.7857 
9 *225:67 *783:S 5 
10 *225:67 *225:80 49.9107 
11 *225:80 *225:84 6.94643 
12 *225:84 *781:S 5.75 
13 *225:84 *225:97 49.9286 
14 *225:97 *225:101 11.6786 
15 *225:101 *782:S 5 
16 *225:101 *784:S 47.3572 
17 *225:97 *738:S 10.3214 
18 *225:63 *780:S 10 
*END

*D_NET *226 0.0105035
*CONN
*I *800:S I *D MUX2_X1
*I *799:S I *D MUX2_X1
*I *803:S I *D MUX2_X1
*I *805:S I *D MUX2_X1
*I *740:S I *D MUX2_X1
*I *804:S I *D MUX2_X1
*I *802:S I *D MUX2_X1
*I *801:S I *D MUX2_X1
*I *739:ZN O *D NOR2_X1
*CAP
1 *800:S 1.22087e-05
2 *799:S 7.63169e-05
3 *803:S 2.95247e-05
4 *805:S 1.48099e-05
5 *740:S 0
6 *804:S 0
7 *802:S 0.000410783
8 *801:S 7.84237e-06
9 *739:ZN 5.12288e-06
10 *226:110 0.000269135
11 *226:106 0.000281493
12 *226:102 5.6693e-05
13 *226:100 0.000344348
14 *226:98 0.000553724
15 *226:86 0.000167698
16 *226:82 0.000264314
17 *226:61 0.000885178
18 *226:18 0.000560194
19 *226:16 0.00056456
20 *226:14 0.000816167
21 *226:10 0.00104159
22 *799:S *799:A 4.31668e-05
23 *799:S *1041:CK 6.40608e-06
24 *799:S *1065:CK 2.43548e-06
25 *800:S *888:A1 1.3229e-05
26 *800:S *890:A4 1.63277e-06
27 *800:S *1050:CK 0
28 *801:S *801:B 3.14607e-05
29 *802:S *766:A 8.99394e-06
30 *802:S *795:S 0
31 *802:S *902:A2 0
32 *802:S *617:24 5.44232e-05
33 *803:S *803:A 1.28987e-05
34 *803:S *929:A2 3.08261e-05
35 *805:S *805:A 2.75346e-06
36 *805:S *847:S 8.03349e-06
37 *805:S *944:A2 1.02826e-05
38 *226:10 *629:10 1.16229e-06
39 *226:14 *230:31 0.000134968
40 *226:16 *964:RN 6.31268e-06
41 *226:16 *964:CK 8.30033e-05
42 *226:16 *526:12 2.2331e-05
43 *226:16 *599:139 9.29508e-06
44 *226:16 *605:21 5.56848e-05
45 *226:16 *605:25 0
46 *226:16 *605:170 0
47 *226:16 *616:22 0.000119136
48 *226:16 *635:69 0
49 *226:18 *801:B 2.45158e-05
50 *226:18 *867:B 0
51 *226:18 *982:CK 5.54348e-05
52 *226:18 *616:22 1.58416e-05
53 *226:61 *736:A 0
54 *226:61 *863:S 2.35447e-05
55 *226:61 *1026:CK 3.49863e-05
56 *226:61 *227:127 2.04364e-05
57 *226:61 *230:31 0.000483599
58 *226:61 *607:112 1.71599e-05
59 *226:61 *631:76 0
60 *226:61 *646:70 2.72417e-06
61 *226:82 *740:A 6.65268e-06
62 *226:82 *1026:CK 2.24327e-06
63 *226:82 *1050:CK 3.65422e-05
64 *226:82 *234:47 1.60038e-06
65 *226:82 *234:51 6.80161e-05
66 *226:82 *466:10 7.66675e-07
67 *226:82 *627:16 9.62051e-07
68 *226:82 *627:26 0
69 *226:82 *631:66 7.12794e-06
70 *226:82 *631:76 4.26902e-05
71 *226:82 *633:387 1.59409e-05
72 *226:86 *800:A 1.56567e-06
73 *226:86 *800:B 0
74 *226:86 *890:A4 1.22775e-06
75 *226:98 *878:A3 5.26111e-05
76 *226:98 *890:A4 2.1459e-06
77 *226:98 *1049:CK 2.00179e-05
78 *226:98 *234:51 3.20076e-06
79 *226:98 *599:238 3.022e-05
80 *226:98 *649:6 3.6114e-06
81 *226:100 *757:A 2.78389e-06
82 *226:100 *819:S 1.9871e-06
83 *226:100 *878:A1 1.2681e-05
84 *226:100 *878:A3 4.93851e-05
85 *226:100 *878:A4 9.30995e-06
86 *226:100 *948:B1 2.65922e-05
87 *226:100 *599:238 0.000145659
88 *226:100 *633:320 8.24308e-05
89 *226:106 *803:A 8.97622e-06
90 *226:106 *929:A2 4.35166e-05
91 *226:110 *810:A 1.67264e-05
92 *226:110 *919:B2 9.33792e-05
93 *226:110 *925:A1 6.56549e-06
94 *226:110 *952:A4 0.000105584
95 *226:110 *1039:CK 1.74984e-05
96 *226:110 *286:8 0.000127469
97 *226:110 *606:48 2.74211e-06
98 *226:110 *633:137 7.62298e-06
99 *226:110 *644:151 2.48018e-05
100 *226:110 *645:8 3.4802e-05
101 *226:110 *645:10 9.2316e-06
102 *226:110 *645:116 5.67391e-05
103 *729:B *226:16 0.000152413
104 *898:B1 *802:S 4.45156e-05
105 *910:A2 *802:S 0.000209348
106 *925:B1 *226:110 0.000128907
107 *942:B1 *226:16 0
108 *954:B1 *803:S 0
109 *1024:D *226:82 5.61423e-05
110 *1051:D *801:S 6.40308e-06
111 *1051:D *226:18 1.0164e-05
112 *1053:D *226:106 1.80284e-05
113 *1054:D *226:16 1.82823e-05
114 *1054:D *226:18 3.24354e-05
115 *181:109 *226:82 0.000119741
116 *181:109 *226:86 3.02563e-05
117 *181:109 *226:98 1.89953e-05
118 *181:119 *226:98 0.000104194
119 *188:14 *226:14 2.11501e-05
120 *188:56 *226:14 1.34446e-05
121 *188:56 *226:61 5.03501e-05
122 *188:106 *226:100 0
123 *188:126 *226:61 1.04329e-05
124 *190:14 *226:10 1.05397e-05
125 *193:111 *226:110 2.92044e-06
126 *193:113 *226:110 0.000246622
127 *199:65 *802:S 6.4022e-05
128 *203:35 *799:S 4.16838e-06
129 *208:36 *802:S 5.27253e-05
130 *224:57 *226:61 0.0001934
131 *225:26 *226:100 1.86937e-06
*RES
1 *739:ZN *226:10 15.6071 
2 *226:10 *226:14 19.07 
3 *226:14 *226:16 60.2857 
4 *226:16 *226:18 19.2143 
5 *226:18 *801:S 11.6429 
6 *226:18 *802:S 39.7286 
7 *226:16 *804:S 10 
8 *226:10 *226:61 49.93 
9 *226:61 *740:S 5 
10 *226:61 *226:82 47.5714 
11 *226:82 *226:86 8.17857 
12 *226:86 *226:98 25.4286 
13 *226:98 *226:100 46.3929 
14 *226:100 *226:102 5 
15 *226:102 *226:106 9.25 
16 *226:106 *226:110 49.3572 
17 *226:110 *805:S 7.25 
18 *226:102 *803:S 9.17857 
19 *226:98 *799:S 18.25 
20 *226:86 *800:S 16.6071 
*END

*D_NET *227 0.0113714
*CONN
*I *793:S I *D MUX2_X1
*I *792:S I *D MUX2_X1
*I *742:S I *D MUX2_X1
*I *796:S I *D MUX2_X1
*I *798:S I *D MUX2_X1
*I *797:S I *D MUX2_X1
*I *795:S I *D MUX2_X1
*I *794:S I *D MUX2_X1
*I *741:ZN O *D NOR2_X1
*CAP
1 *793:S 1.18416e-05
2 *792:S 0.00014183
3 *742:S 0
4 *796:S 0
5 *798:S 0
6 *797:S 5.66179e-05
7 *795:S 0.000538089
8 *794:S 7.67944e-05
9 *741:ZN 0
10 *227:142 0.000495847
11 *227:127 0.000999542
12 *227:106 0.000362822
13 *227:100 0.000437588
14 *227:91 0.000188953
15 *227:79 0.000399212
16 *227:73 0.000393509
17 *227:30 0.000861049
18 *227:18 0.000540987
19 *227:12 0.000522175
20 *227:6 0.000832855
21 *792:S *874:B2 2.39679e-06
22 *792:S *978:CK 0
23 *792:S *465:12 3.74891e-05
24 *792:S *497:14 3.92921e-05
25 *792:S *601:79 0
26 *792:S *601:81 0
27 *793:S *601:79 0
28 *794:S *794:A 0
29 *794:S *602:32 0
30 *794:S *618:16 2.47484e-06
31 *795:S *795:A 7.72537e-06
32 *795:S *795:B 1.98425e-05
33 *795:S *858:A 8.18649e-06
34 *795:S *617:24 0
35 *797:S *790:A 2.55787e-06
36 *797:S *797:A 4.12459e-06
37 *797:S *804:A 2.08416e-06
38 *797:S *937:A1 5.91644e-05
39 *797:S *462:6 0
40 *227:12 *262:10 0.000452416
41 *227:12 *629:10 0.000155941
42 *227:12 *629:20 5.38179e-05
43 *227:18 *815:S 0
44 *227:18 *898:C2 4.16485e-05
45 *227:18 *228:18 3.39527e-06
46 *227:18 *470:10 9.77349e-05
47 *227:18 *617:18 2.08892e-06
48 *227:18 *629:20 0.000420433
49 *227:18 *629:48 0
50 *227:30 *790:A 1.98589e-05
51 *227:30 *794:A 1.63402e-05
52 *227:30 *898:B2 0
53 *227:30 *898:C2 9.63733e-05
54 *227:30 *901:B1 2.33625e-06
55 *227:30 *902:A4 1.62377e-05
56 *227:30 *937:B2 2.08328e-06
57 *227:30 *228:18 1.46241e-05
58 *227:30 *605:53 0
59 *227:30 *617:18 0.000246652
60 *227:30 *618:16 0
61 *227:73 *815:S 0
62 *227:73 *818:S 0
63 *227:73 *547:8 3.6182e-06
64 *227:73 *629:48 0
65 *227:79 *756:A 1.51496e-05
66 *227:79 *1038:CK 1.95465e-05
67 *227:79 *480:10 2.89018e-05
68 *227:79 *607:80 0
69 *227:79 *628:71 0
70 *227:79 *632:70 0.000355634
71 *227:79 *637:78 2.27603e-05
72 *227:91 *798:A 2.13573e-06
73 *227:91 *628:88 6.06867e-06
74 *227:91 *629:48 0
75 *227:100 *628:88 3.84365e-06
76 *227:106 *782:A 1.47937e-05
77 *227:106 *796:A 7.043e-06
78 *227:106 *796:B 2.61185e-05
79 *227:106 *868:B 2.19256e-05
80 *227:106 *924:B2 9.29318e-06
81 *227:106 *232:67 0
82 *227:106 *463:8 0
83 *227:106 *604:88 5.26581e-05
84 *227:106 *604:101 4.00918e-05
85 *227:106 *604:107 2.65286e-05
86 *227:106 *606:58 1.90574e-06
87 *227:127 *233:23 0
88 *227:127 *270:20 9.20466e-05
89 *227:127 *623:10 3.60632e-06
90 *227:142 *245:12 4.37223e-05
91 *227:142 *270:20 5.84717e-05
92 *227:142 *623:10 2.9251e-06
93 *768:S *227:106 6.0887e-06
94 *802:S *795:S 0
95 *838:S *227:106 4.44999e-05
96 *901:A2 *227:30 4.89981e-05
97 *981:D *227:106 0
98 *988:D *795:S 8.26038e-06
99 *1013:D *227:106 3.26032e-06
100 *1060:D *795:S 2.16046e-05
101 *1061:D *227:106 1.34107e-07
102 *1067:D *227:30 2.97112e-05
103 *1072:D *227:79 3.49085e-06
104 *1077:D *227:106 0
105 *188:56 *227:127 0.000249414
106 *188:126 *227:127 7.9183e-05
107 *190:14 *227:12 7.06741e-06
108 *190:22 *227:12 3.94919e-05
109 *190:40 *227:30 0
110 *190:95 *227:79 4.85664e-05
111 *190:97 *227:79 2.10353e-05
112 *190:97 *227:91 0.000146784
113 *191:80 *227:79 2.45903e-05
114 *191:80 *227:91 0.00016977
115 *191:80 *227:100 3.32258e-05
116 *191:82 *227:100 7.72537e-06
117 *193:73 *227:127 1.18569e-05
118 *199:12 *227:142 4.64685e-05
119 *199:27 *227:142 6.52895e-05
120 *199:33 *792:S 4.27112e-05
121 *199:33 *793:S 7.34988e-06
122 *199:48 *227:106 0
123 *205:54 *227:142 8.93781e-05
124 *205:69 *227:142 0.000519176
125 *209:31 *792:S 3.00439e-05
126 *226:61 *227:127 2.04364e-05
*RES
1 *741:ZN *227:6 10 
2 *227:6 *227:12 37.5 
3 *227:12 *227:18 20.6014 
4 *227:18 *227:30 46.1786 
5 *227:30 *794:S 17.25 
6 *227:30 *795:S 39.7271 
7 *227:18 *797:S 16.75 
8 *227:12 *227:73 13.8643 
9 *227:73 *227:79 45.8572 
10 *227:79 *227:91 33.6072 
11 *227:91 *798:S 5 
12 *227:91 *227:100 13.75 
13 *227:100 *227:106 47.8929 
14 *227:106 *796:S 5 
15 *227:6 *227:127 45.2571 
16 *227:127 *742:S 10 
17 *227:127 *227:142 30.4029 
18 *227:142 *792:S 27.0357 
19 *227:142 *793:S 11.1786 
*END

*D_NET *228 0.00212787
*CONN
*I *1171:A I *D BUF_X2
*I *864:S I *D MUX2_X1
*I *867:S I *D MUX2_X1
*I *743:ZN O *D NOR3_X1
*CAP
1 *1171:A 2.18552e-05
2 *864:S 3.41203e-06
3 *867:S 0
4 *743:ZN 0
5 *228:18 0.000230104
6 *228:14 0.000262744
7 *228:10 0.000221541
8 *228:6 0.000207344
9 *864:S *459:12 7.72792e-06
10 *1171:A *670:A 1.2453e-05
11 *1171:A *599:131 4.78054e-06
12 *1171:A *611:62 3.07768e-05
13 *1171:A *611:66 7.72792e-06
14 *228:10 *864:B 2.35034e-05
15 *228:10 *942:A 1.0495e-05
16 *228:10 *1166:A 3.1028e-05
17 *228:10 *611:18 6.70982e-05
18 *228:10 *611:40 2.49497e-05
19 *228:10 *611:51 6.33941e-05
20 *228:10 *611:62 1.29947e-05
21 *228:10 *617:8 8.83125e-05
22 *228:14 *979:CK 0
23 *228:14 *459:12 3.28688e-05
24 *228:18 *762:B 5.4579e-05
25 *228:18 *790:A 0.00013103
26 *228:18 *867:A 4.23899e-05
27 *228:18 *898:C2 3.32295e-05
28 *228:18 *1070:CK 2.16058e-05
29 *228:18 *470:10 6.47235e-05
30 *228:18 *510:12 0.000132863
31 *228:18 *617:8 5.44943e-06
32 *228:18 *634:50 3.01743e-06
33 *228:18 *635:56 1.21775e-05
34 *680:A3 *228:10 0
35 *762:S *228:18 0.000146397
36 *1070:D *228:18 1.94292e-05
37 *177:18 *228:10 1.48912e-05
38 *180:12 *1171:A 2.26304e-06
39 *180:12 *228:10 2.38139e-06
40 *184:16 *228:10 1.52806e-05
41 *217:23 *228:10 0
42 *217:29 *228:10 0
43 *223:14 *228:10 0
44 *223:14 *228:18 2.54476e-05
45 *223:35 *864:S 2.43548e-06
46 *223:35 *228:14 1.51496e-05
47 *227:18 *228:18 3.39527e-06
48 *227:30 *228:18 1.46241e-05
*RES
1 *743:ZN *228:6 10 
2 *228:6 *228:10 32.3929 
3 *228:10 *228:14 9.25 
4 *228:14 *228:18 45.9643 
5 *228:18 *867:S 5 
6 *228:10 *864:S 5.75 
7 *228:6 *1171:A 13.5357 
*END

*D_NET *229 0.00337814
*CONN
*I *1170:A I *D BUF_X2
*I *818:S I *D MUX2_X1
*I *815:S I *D MUX2_X1
*I *745:ZN O *D NOR3_X1
*CAP
1 *1170:A 3.82526e-05
2 *818:S 0.00015528
3 *815:S 0.000126403
4 *745:ZN 5.37304e-06
5 *229:12 0.000281684
6 *229:10 0.000322222
7 *229:8 0.000365848
8 *815:S *815:A 2.51793e-05
9 *815:S *843:A 4.208e-05
10 *815:S *900:C2 2.39679e-06
11 *815:S *936:B1 1.84817e-05
12 *815:S *938:A1 9.62051e-07
13 *815:S *602:110 4.12796e-06
14 *815:S *629:20 1.47838e-06
15 *815:S *633:63 2.16578e-05
16 *1170:A *621:12 7.9624e-06
17 *1170:A *622:38 7.9624e-06
18 *1170:A *628:10 7.85709e-05
19 *229:10 *262:10 0
20 *229:10 *628:10 0.000418598
21 *229:10 *628:16 0.000425553
22 *685:A1 *229:8 7.19036e-06
23 *685:A1 *229:10 7.70714e-06
24 *739:A2 *1170:A 1.27837e-05
25 *739:A2 *229:10 2.08098e-06
26 *741:A2 *229:10 4.77467e-05
27 *808:S *229:10 1.58752e-05
28 *938:A2 *815:S 0
29 *179:29 *229:10 5.34428e-06
30 *180:23 *229:8 3.09143e-06
31 *190:22 *229:10 1.1765e-05
32 *190:30 *815:S 0
33 *190:30 *229:10 1.3268e-05
34 *205:125 *815:S 0.000136766
35 *205:125 *818:S 0.000413304
36 *208:36 *818:S 0.000303529
37 *224:10 *229:10 4.76165e-05
38 *227:18 *815:S 0
39 *227:73 *815:S 0
40 *227:73 *818:S 0
*RES
1 *745:ZN *229:8 10.75 
2 *229:8 *229:10 49.1072 
3 *229:10 *229:12 5 
4 *229:12 *815:S 26.7929 
5 *229:12 *818:S 24.87 
6 *229:8 *1170:A 16.0714 
*END

*D_NET *230 0.00377682
*CONN
*I *841:S I *D MUX2_X1
*I *842:S I *D MUX2_X1
*I *1168:A I *D BUF_X2
*I *747:ZN O *D NOR4_X2
*CAP
1 *841:S 0
2 *842:S 2.84496e-05
3 *1168:A 5.59276e-05
4 *747:ZN 1.1984e-05
5 *230:37 0.000159311
6 *230:35 0.000462838
7 *230:31 0.000927793
8 *230:8 0.000663727
9 *842:S *842:A 4.01401e-05
10 *1168:A *611:66 1.70635e-05
11 *1168:A *622:38 4.77698e-05
12 *230:8 *611:70 3.48838e-06
13 *230:31 *863:S 8.33713e-06
14 *230:31 *234:14 0
15 *230:31 *622:63 1.07633e-05
16 *230:31 *625:14 7.77769e-06
17 *230:31 *625:33 1.02181e-05
18 *230:31 *632:14 7.43418e-05
19 *230:31 *633:175 1.84696e-05
20 *230:31 *633:185 1.3847e-05
21 *230:35 *757:A 0
22 *230:35 *886:B1 1.68643e-06
23 *230:35 *886:B2 0.000100108
24 *230:35 *986:CK 2.6197e-05
25 *230:35 *490:6 4.6282e-05
26 *230:35 *514:8 0
27 *230:35 *600:145 0
28 *230:35 *600:155 0
29 *230:35 *601:89 0
30 *230:35 *621:42 7.09027e-06
31 *230:35 *622:61 4.9678e-06
32 *230:35 *627:26 0
33 *230:35 *633:326 2.72099e-06
34 *230:35 *633:341 4.58904e-06
35 *230:35 *633:378 9.11897e-09
36 *230:35 *633:387 2.24327e-06
37 *230:35 *646:12 7.21335e-06
38 *230:35 *646:54 1.2272e-05
39 *230:35 *648:29 0
40 *230:35 *648:33 0
41 *230:35 *648:39 0
42 *230:37 *757:A 0
43 *230:37 *877:A1 0
44 *230:37 *1074:CK 9.93822e-05
45 *230:37 *648:29 0
46 *230:37 *648:94 0
47 *747:A4 *230:8 3.82563e-06
48 *747:A4 *230:31 5.8669e-06
49 *764:S *230:35 2.86475e-06
50 *889:A2 *230:35 0
51 *1002:D *230:37 6.06867e-06
52 *1090:D *230:35 2.97287e-06
53 *150:39 *230:31 2.42688e-05
54 *150:41 *230:8 4.37715e-05
55 *150:41 *230:31 1.72405e-05
56 *196:103 *842:S 0.000119616
57 *224:57 *230:31 5.47523e-05
58 *226:14 *230:31 0.000134968
59 *226:61 *230:31 0.000483599
*RES
1 *747:ZN *230:8 12.2857 
2 *230:8 *1168:A 17 
3 *230:8 *230:31 45.03 
4 *230:31 *230:35 36.7857 
5 *230:35 *230:37 14.6429 
6 *230:37 *842:S 21.3571 
7 *230:37 *841:S 5 
*END

*D_NET *231 0.00369265
*CONN
*I *855:S I *D MUX2_X1
*I *856:S I *D MUX2_X1
*I *860:S I *D MUX2_X1
*I *1167:A I *D BUF_X2
*I *749:ZN O *D NOR3_X1
*CAP
1 *855:S 0
2 *856:S 0.000192227
3 *860:S 0.000164604
4 *1167:A 0
5 *749:ZN 0.0001489
6 *231:60 0.000411078
7 *231:31 0.000453497
8 *231:27 0.000328035
9 *231:14 0.000406893
10 *856:S *849:A 2.68624e-05
11 *856:S *849:B 9.61765e-05
12 *856:S *849:S 2.14608e-05
13 *856:S *880:A1 0
14 *856:S *883:A1 0
15 *856:S *883:A3 2.56243e-06
16 *856:S *883:A4 6.33259e-05
17 *856:S *489:12 4.04712e-06
18 *856:S *621:42 0
19 *860:S *860:A 3.20228e-05
20 *860:S *860:B 3.99261e-06
21 *860:S *518:8 0.000245701
22 *860:S *605:96 6.0887e-06
23 *860:S *633:25 6.27788e-06
24 *231:14 *657:A 0
25 *231:14 *749:A2 8.43215e-07
26 *231:14 *612:6 2.35434e-05
27 *231:14 *612:10 2.39679e-06
28 *231:14 *618:12 3.02372e-05
29 *231:14 *638:25 2.21937e-05
30 *231:27 *855:B 6.38328e-07
31 *231:27 *931:A1 3.09411e-06
32 *231:27 *931:B2 0
33 *231:27 *1043:CK 1.86809e-06
34 *231:27 *507:14 0.000118583
35 *231:27 *626:14 1.02452e-05
36 *231:27 *638:25 1.30373e-05
37 *231:27 *638:36 0
38 *231:27 *640:16 0
39 *231:31 *855:B 0
40 *231:31 *1009:CK 0
41 *231:31 *1043:CK 2.75732e-05
42 *231:31 *633:13 2.23415e-06
43 *231:60 *881:B2 1.95465e-05
44 *231:60 *883:A4 1.86471e-05
45 *231:60 *270:20 9.17395e-06
46 *231:60 *489:12 4.9678e-06
47 *231:60 *600:67 4.95679e-05
48 *231:60 *600:77 4.81505e-05
49 *231:60 *621:42 0
50 *231:60 *623:10 3.99394e-05
51 *231:60 *632:36 2.53867e-05
52 *231:60 *633:13 6.40152e-06
53 *681:A2 *231:27 5.84443e-05
54 *731:A2 *231:27 0
55 *739:A1 *231:14 1.62262e-06
56 *741:A1 *231:27 2.52965e-06
57 *745:A1 *231:14 1.10481e-05
58 *931:A2 *231:27 1.73125e-05
59 *985:D *231:31 2.68657e-05
60 *1009:D *231:60 5.47158e-05
61 *158:14 *231:14 5.19493e-06
62 *177:27 *231:14 1.24436e-05
63 *177:29 *231:14 1.66144e-05
64 *178:10 *231:27 2.24331e-06
65 *180:23 *231:14 1.50843e-05
66 *191:62 *231:31 0
67 *191:62 *231:60 0
68 *205:16 *231:14 0.000202868
69 *208:22 *860:S 0
70 *212:32 *860:S 0.00012973
71 *212:36 *860:S 2.14477e-05
72 *216:18 *231:14 8.59544e-06
73 *221:31 *231:27 0
74 *225:20 *231:27 1.38642e-05
75 *225:20 *231:31 0
*RES
1 *749:ZN *231:14 35.6072 
2 *231:14 *1167:A 5 
3 *231:14 *231:27 29.8929 
4 *231:27 *231:31 8.35715 
5 *231:31 *860:S 41.25 
6 *231:31 *231:60 38.3929 
7 *231:60 *856:S 28.75 
8 *231:27 *855:S 5 
*END

*D_NET *232 0.00895411
*CONN
*I *772:S I *D MUX2_X1
*I *775:S I *D MUX2_X1
*I *771:S I *D MUX2_X1
*I *776:S I *D MUX2_X1
*I *773:S I *D MUX2_X1
*I *774:S I *D MUX2_X1
*I *777:S I *D MUX2_X1
*I *752:S I *D MUX2_X1
*I *751:ZN O *D NOR2_X1
*CAP
1 *772:S 0
2 *775:S 0.000271859
3 *771:S 4.29009e-05
4 *776:S 1.35029e-05
5 *773:S 7.49687e-05
6 *774:S 0
7 *777:S 0.000103639
8 *752:S 0
9 *751:ZN 7.46579e-05
10 *232:138 0.000454242
11 *232:132 0.000617121
12 *232:113 0.000932793
13 *232:67 0.000471783
14 *232:50 0.000531421
15 *232:38 0.000451224
16 *232:16 0.000406311
17 *232:14 0.000377213
18 *232:8 0.000850127
19 *771:S *848:A 2.65716e-06
20 *771:S *233:27 0
21 *771:S *521:8 5.56463e-06
22 *771:S *600:50 6.08078e-05
23 *771:S *600:63 3.70539e-05
24 *773:S *766:A 7.24968e-06
25 *773:S *773:A 2.39679e-06
26 *773:S *907:A1 2.23278e-06
27 *773:S *911:A1 2.52965e-06
28 *773:S *499:12 3.1962e-06
29 *775:S *775:A 3.96215e-05
30 *775:S *943:A1 1.88906e-05
31 *775:S *952:A3 7.82257e-06
32 *775:S *953:A3 0
33 *775:S *309:22 0.000145647
34 *775:S *606:145 7.12794e-06
35 *775:S *625:43 0
36 *776:S *776:A 4.21607e-06
37 *777:S *777:A 2.20439e-05
38 *777:S *861:S 1.18589e-06
39 *777:S *644:55 7.72806e-05
40 *232:8 *626:14 2.15711e-05
41 *232:8 *638:25 2.08903e-05
42 *232:14 *547:8 1.20936e-06
43 *232:14 *602:114 0
44 *232:14 *633:46 4.04742e-06
45 *232:38 *603:181 1.77122e-05
46 *232:38 *617:24 0.000144265
47 *232:50 *750:A 6.65423e-06
48 *232:50 *750:S 0
49 *232:50 *752:A 2.39679e-06
50 *232:50 *774:A 3.09143e-06
51 *232:50 *496:12 2.2822e-05
52 *232:50 *520:6 4.12459e-06
53 *232:50 *603:9 3.85541e-05
54 *232:50 *603:21 7.72537e-06
55 *232:50 *607:41 9.14538e-05
56 *232:50 *626:57 8.37823e-06
57 *232:50 *642:24 7.34401e-06
58 *232:67 *732:B 0
59 *232:67 *752:A 1.25215e-05
60 *232:67 *796:B 7.19036e-06
61 *232:67 *861:S 8.1219e-06
62 *232:67 *1061:CK 1.11662e-05
63 *232:67 *607:20 0
64 *232:67 *618:79 0.000188367
65 *232:67 *642:20 5.74716e-05
66 *232:67 *642:24 1.40203e-05
67 *232:67 *644:55 2.52965e-06
68 *232:67 *644:66 1.59723e-05
69 *232:113 *849:S 7.09825e-06
70 *232:113 *233:23 6.03431e-05
71 *232:132 *772:A 9.0076e-06
72 *232:132 *849:S 1.00834e-05
73 *232:132 *948:B1 1.43047e-05
74 *232:132 *632:36 5.45811e-06
75 *232:138 *772:A 1.21774e-06
76 *232:138 *965:RN 3.34423e-05
77 *232:138 *581:10 1.65649e-05
78 *232:138 *600:19 0
79 *232:138 *604:36 0
80 *232:138 *604:59 0
81 *741:A2 *232:8 7.72792e-06
82 *757:S *232:132 7.25355e-06
83 *757:S *232:138 0
84 *766:S *232:38 1.26049e-06
85 *768:S *232:67 0
86 *784:S *777:S 0
87 *899:A2 *773:S 7.72792e-06
88 *910:A2 *232:38 3.13735e-05
89 *930:B2 *775:S 2.3767e-06
90 *943:A2 *775:S 7.19036e-06
91 *943:B1 *775:S 0
92 *954:B2 *775:S 3.89217e-05
93 *954:B2 *232:138 1.26998e-05
94 *965:D *775:S 6.83995e-05
95 *989:D *232:67 3.23363e-05
96 *991:D *777:S 2.07643e-05
97 *992:D *232:50 4.31736e-06
98 *1019:D *232:14 1.94153e-05
99 *1043:D *232:8 1.4892e-05
100 *1043:D *232:14 4.01504e-05
101 *1052:D *232:16 7.95234e-05
102 *1075:D *232:14 5.63604e-05
103 *1082:D *232:138 0
104 *1084:D *232:38 2.58958e-06
105 *1085:D *775:S 0
106 *1088:D *232:50 9.90355e-06
107 *1093:D *232:67 1.28987e-05
108 *1096:D *232:67 3.98608e-05
109 *179:18 *232:8 3.16298e-05
110 *190:30 *232:14 5.60332e-07
111 *190:95 *232:14 7.11905e-07
112 *193:73 *232:113 0
113 *193:111 *232:113 0
114 *193:111 *232:132 0
115 *196:105 *775:S 0
116 *199:37 *232:132 0
117 *199:65 *232:38 6.99185e-06
118 *206:52 *232:132 3.53948e-05
119 *208:36 *773:S 7.72537e-06
120 *208:36 *232:14 1.62931e-06
121 *211:18 *232:14 0.000238161
122 *211:18 *232:16 0.000163599
123 *211:18 *232:38 4.0614e-05
124 *218:18 *232:8 3.7666e-06
125 *222:14 *232:14 4.05645e-05
126 *222:14 *232:113 1.89735e-05
127 *222:16 *232:14 4.80851e-05
128 *222:18 *232:14 2.40034e-05
129 *222:18 *232:16 1.35808e-05
130 *222:18 *232:38 2.73538e-06
131 *222:37 *232:38 9.7778e-05
132 *222:109 *232:132 0
133 *225:26 *232:138 0.000157414
134 *225:63 *232:14 0.000227252
135 *225:63 *232:113 9.22658e-05
136 *225:67 *232:14 0.000184318
137 *227:106 *232:67 0
*RES
1 *751:ZN *232:8 19.25 
2 *232:8 *232:14 49.4286 
3 *232:14 *232:16 9.07143 
4 *232:16 *232:38 44.7043 
5 *232:38 *232:50 29.6429 
6 *232:50 *752:S 5 
7 *232:50 *232:67 48.2143 
8 *232:67 *777:S 28.4643 
9 *232:38 *774:S 5 
10 *232:16 *773:S 18.1071 
11 *232:14 *776:S 11.25 
12 *232:8 *232:113 24.7757 
13 *232:113 *771:S 20.3929 
14 *232:113 *232:132 26.1243 
15 *232:132 *232:138 27.6786 
16 *232:138 *775:S 45.4643 
17 *232:132 *772:S 5 
*END

*D_NET *233 0.00410512
*CONN
*I *849:S I *D MUX2_X1
*I *852:S I *D MUX2_X1
*I *848:S I *D MUX2_X1
*I *1166:A I *D BUF_X2
*I *753:ZN O *D NOR3_X1
*CAP
1 *849:S 0.000137336
2 *852:S 1.58721e-05
3 *848:S 2.0949e-05
4 *1166:A 6.11675e-05
5 *753:ZN 1.30077e-06
6 *233:48 0.000257634
7 *233:27 0.000419494
8 *233:23 0.000884289
9 *233:8 0.000652639
10 *848:S *848:A 1.32323e-05
11 *849:S *883:A1 7.35901e-06
12 *849:S *489:12 1.58475e-05
13 *849:S *607:82 3.78853e-07
14 *849:S *632:36 0.000153566
15 *849:S *646:25 9.0876e-06
16 *852:S *852:A 2.75744e-05
17 *852:S *950:A2 2.81115e-05
18 *1166:A *753:A2 8.07144e-07
19 *1166:A *611:18 9.561e-06
20 *1166:A *638:36 2.83077e-06
21 *233:8 *753:A2 1.07619e-06
22 *233:23 *234:14 0.000188057
23 *233:23 *234:33 0.000219758
24 *233:23 *632:36 0.000108877
25 *233:27 *848:A 2.66485e-05
26 *233:27 *456:34 2.38218e-06
27 *233:27 *521:8 2.05745e-06
28 *233:27 *623:10 0
29 *233:48 *820:A 0
30 *233:48 *824:A 3.76691e-05
31 *233:48 *848:A 2.68269e-05
32 *233:48 *848:B 8.80829e-06
33 *233:48 *920:A1 6.44913e-05
34 *233:48 *921:A1 0
35 *233:48 *921:B2 6.06412e-06
36 *233:48 *923:A2 9.85702e-05
37 *233:48 *993:CK 0
38 *233:48 *997:CK 0
39 *683:A1 *1166:A 6.0887e-06
40 *771:S *233:27 0
41 *820:S *233:48 0
42 *856:S *849:S 2.14608e-05
43 *1025:D *233:48 0
44 *181:29 *848:S 7.72537e-06
45 *184:16 *1166:A 0.000191771
46 *184:16 *233:8 6.94703e-06
47 *191:62 *848:S 4.92863e-06
48 *191:62 *233:27 2.84765e-06
49 *191:62 *233:48 2.20333e-05
50 *205:75 *233:48 0.000116702
51 *206:62 *233:48 0
52 *214:14 *233:48 4.23027e-05
53 *222:109 *233:23 5.66802e-05
54 *223:60 *848:S 6.75525e-06
55 *223:60 *233:48 0
56 *227:127 *233:23 0
57 *228:10 *1166:A 3.1028e-05
58 *232:113 *849:S 7.09825e-06
59 *232:113 *233:23 6.03431e-05
60 *232:132 *849:S 1.00834e-05
*RES
1 *753:ZN *233:8 10.3929 
2 *233:8 *1166:A 21.5357 
3 *233:8 *233:23 28.31 
4 *233:23 *233:27 20.7143 
5 *233:27 *848:S 12.8571 
6 *233:27 *233:48 47.6072 
7 *233:48 *852:S 7.75 
8 *233:23 *849:S 26.07 
*END

*D_NET *234 0.00578842
*CONN
*I *788:S I *D MUX2_X1
*I *786:S I *D MUX2_X1
*I *785:S I *D MUX2_X1
*I *1165:A I *D BUF_X2
*I *755:ZN O *D NOR3_X1
*CAP
1 *788:S 0
2 *786:S 0.000202839
3 *785:S 7.81613e-05
4 *1165:A 3.05702e-05
5 *755:ZN 0.000142116
6 *234:51 0.000553366
7 *234:47 0.000537959
8 *234:41 0.000432171
9 *234:33 0.000474851
10 *234:14 0.00048096
11 *785:S *785:A 0.000274833
12 *785:S *878:A4 0
13 *785:S *599:238 0.00010562
14 *785:S *600:170 1.87637e-06
15 *786:S *785:A 2.96955e-05
16 *786:S *786:A 6.11168e-05
17 *786:S *893:B2 1.0276e-05
18 *786:S *895:A3 5.01029e-05
19 *786:S *599:238 9.91569e-06
20 *1165:A *629:10 4.28883e-05
21 *234:14 *265:12 4.52612e-06
22 *234:14 *611:66 7.72537e-06
23 *234:14 *612:32 4.18985e-05
24 *234:14 *612:34 1.34875e-05
25 *234:14 *630:16 3.90045e-05
26 *234:14 *633:185 2.87162e-06
27 *234:33 *717:A2 1.90814e-05
28 *234:33 *823:A 8.44607e-06
29 *234:33 *274:14 6.84237e-06
30 *234:33 *556:14 8.9988e-06
31 *234:33 *633:185 1.66812e-05
32 *234:41 *702:A2 0
33 *234:41 *788:B 1.20176e-05
34 *234:41 *830:B 3.5108e-06
35 *234:41 *603:124 3.19164e-07
36 *234:47 *1211:A 0
37 *234:47 *641:23 0
38 *234:47 *641:32 0
39 *234:47 *647:8 6.66538e-06
40 *234:47 *647:19 1.18572e-05
41 *234:47 *647:23 0
42 *234:51 *1049:CK 2.00179e-05
43 *234:51 *1050:CK 3.83757e-05
44 *234:51 *649:6 3.59789e-05
45 *739:A1 *1165:A 7.57858e-06
46 *755:A1 *234:14 7.72537e-06
47 *755:A2 *234:14 1.23839e-05
48 *806:S *786:S 0
49 *893:B1 *786:S 2.0214e-05
50 *915:B1 *234:33 1.2517e-06
51 *1018:D *786:S 0
52 *1020:D *234:41 3.35055e-05
53 *1048:D *234:47 1.2452e-05
54 *1049:D *786:S 9.01846e-07
55 *1049:D *234:51 4.29467e-05
56 *1056:D *234:47 3.83757e-05
57 *1068:D *234:47 0
58 *173:8 *1165:A 7.96507e-06
59 *177:29 *1165:A 3.06916e-06
60 *181:10 *234:33 1.32625e-05
61 *181:80 *234:33 0.000650402
62 *181:109 *234:47 0
63 *181:119 *786:S 2.17621e-05
64 *181:119 *234:51 0
65 *184:146 *785:S 0
66 *196:8 *234:41 1.70528e-05
67 *202:48 *234:47 0
68 *203:29 *234:41 4.04707e-06
69 *203:29 *234:47 8.89076e-05
70 *203:35 *234:47 6.50237e-05
71 *203:35 *234:51 4.29124e-05
72 *209:31 *785:S 0
73 *211:8 *234:33 0.00015922
74 *211:10 *234:33 0.00021087
75 *221:27 *1165:A 1.82068e-05
76 *222:109 *234:33 1.01261e-05
77 *226:82 *234:47 1.60038e-06
78 *226:82 *234:51 6.80161e-05
79 *226:98 *234:51 3.20076e-06
80 *230:31 *234:14 0
81 *233:23 *234:14 0.000188057
82 *233:23 *234:33 0.000219758
*RES
1 *755:ZN *234:14 26.3386 
2 *234:14 *1165:A 19.2143 
3 *234:14 *234:33 46.4957 
4 *234:33 *234:41 23.6072 
5 *234:41 *234:47 33.2857 
6 *234:47 *234:51 38.75 
7 *234:51 *785:S 25.9286 
8 *234:51 *786:S 36.0714 
9 *234:41 *788:S 5 
*END

*D_NET *235 0.000608528
*CONN
*I *873:B I *D XNOR2_X1
*I *871:ZN O *D NOR3_X1
*CAP
1 *873:B 1.00051e-05
2 *871:ZN 0.000158254
3 *235:26 0.000168259
4 *873:B *595:47 1.83411e-06
5 *235:26 *594:58 6.40023e-06
6 *235:26 *596:22 3.74027e-05
7 *235:26 *596:24 5.48932e-05
8 *235:26 *599:96 4.47557e-06
9 *235:26 *599:104 1.88334e-06
10 *235:26 *639:39 1.39499e-06
11 *235:26 *639:64 2.21873e-05
12 *705:A4 *235:26 2.03308e-05
13 *871:A1 *235:26 7.19036e-06
14 *871:A2 *235:26 1.28085e-05
15 *871:A3 *235:26 1.43238e-06
16 *872:A *235:26 7.52763e-06
17 *872:B *235:26 3.19164e-07
18 *159:6 *873:B 1.25215e-05
19 *159:25 *235:26 6.76357e-05
20 *159:40 *235:26 2.52965e-06
21 *202:12 *235:26 9.24246e-06
*RES
1 *871:ZN *235:26 45.6671 
2 *235:26 *873:B 11.25 
*END

*D_NET *236 0.000208277
*CONN
*I *878:A1 I *D NAND4_X1
*I *874:ZN O *D AOI22_X1
*CAP
1 *878:A1 3.41628e-05
2 *874:ZN 3.41628e-05
3 *878:A1 *878:A2 3.09143e-06
4 *878:A1 *878:A3 4.18985e-05
5 *878:A1 *878:A4 5.50887e-05
6 *874:A2 *878:A1 1.94663e-05
7 *884:A1 *878:A1 2.75346e-06
8 *184:140 *878:A1 4.97191e-06
9 *226:100 *878:A1 1.2681e-05
*RES
1 *874:ZN *878:A1 26.4286 
*END

*D_NET *237 0.000255518
*CONN
*I *878:A2 I *D NAND4_X1
*I *875:ZN O *D AOI22_X1
*CAP
1 *878:A2 0.000109561
2 *875:ZN 0.000109561
3 *878:A2 *785:B 7.72537e-06
4 *878:A2 *878:A3 1.25189e-05
5 *878:A2 *884:A2 0
6 *878:A2 *600:170 4.2289e-06
7 *878:A1 *878:A2 3.09143e-06
8 *184:140 *878:A2 8.8313e-06
*RES
1 *875:ZN *878:A2 21.5357 
*END

*D_NET *238 0.000707153
*CONN
*I *878:A3 I *D NAND4_X1
*I *876:ZN O *D AOI22_X1
*CAP
1 *878:A3 0.000127834
2 *876:ZN 0.000127834
3 *878:A3 *895:A4 3.83783e-05
4 *878:A3 *896:A3 3.23723e-07
5 *878:A3 *577:12 4.64418e-06
6 *878:A3 *599:238 7.60479e-06
7 *878:A3 *600:170 1.83411e-06
8 *874:A2 *878:A3 1.61002e-06
9 *876:A2 *878:A3 0.000201744
10 *878:A1 *878:A3 4.18985e-05
11 *878:A2 *878:A3 1.25189e-05
12 *184:127 *878:A3 3.89326e-05
13 *226:98 *878:A3 5.26111e-05
14 *226:100 *878:A3 4.93851e-05
*RES
1 *876:ZN *878:A3 42.8929 
*END

*D_NET *239 0.000323719
*CONN
*I *878:A4 I *D NAND4_X1
*I *877:ZN O *D AOI22_X1
*CAP
1 *878:A4 8.85866e-05
2 *877:ZN 8.85866e-05
3 *878:A4 *874:A1 1.16703e-05
4 *878:A4 *874:B2 2.39679e-06
5 *878:A4 *600:170 0
6 *878:A4 *633:341 0
7 *785:S *878:A4 0
8 *874:A2 *878:A4 4.29819e-05
9 *878:A1 *878:A4 5.50887e-05
10 *209:31 *878:A4 2.50986e-05
11 *226:100 *878:A4 9.30995e-06
*RES
1 *877:ZN *878:A4 31.1071 
*END

*D_NET *240 0.000113312
*CONN
*I *884:A2 I *D NOR3_X1
*I *878:ZN O *D NAND4_X1
*CAP
1 *884:A2 4.64754e-05
2 *878:ZN 4.64754e-05
3 *884:A2 *884:A3 2.75346e-06
4 *884:A2 *600:170 2.23871e-06
5 *878:A2 *884:A2 0
6 *884:A1 *884:A2 1.53686e-05
*RES
1 *878:ZN *884:A2 15.4286 
*END

*D_NET *241 0.0010021
*CONN
*I *883:A1 I *D NAND4_X1
*I *879:ZN O *D AOI22_X1
*CAP
1 *883:A1 0.00030765
2 *879:ZN 0.00030765
3 *883:A1 *834:A 1.03992e-05
4 *883:A1 *834:B 5.96901e-05
5 *883:A1 *849:A 0
6 *883:A1 *879:A1 0.000146546
7 *883:A1 *879:B2 4.02055e-06
8 *883:A1 *881:B2 1.16072e-05
9 *883:A1 *883:A3 3.09411e-06
10 *883:A1 *883:A4 9.01846e-07
11 *883:A1 *489:12 6.66538e-06
12 *883:A1 *513:10 3.69583e-05
13 *883:A1 *600:77 3.19164e-06
14 *883:A1 *633:175 6.86631e-06
15 *849:S *883:A1 7.35901e-06
16 *856:S *883:A1 0
17 *879:B1 *883:A1 3.18369e-05
18 *1009:D *883:A1 1.98004e-05
19 *178:62 *883:A1 1.91498e-06
20 *216:73 *883:A1 2.52965e-06
21 *216:98 *883:A1 3.34221e-05
22 *225:20 *883:A1 0
*RES
1 *879:ZN *883:A1 48.8572 
*END

*D_NET *242 0.000113726
*CONN
*I *883:A2 I *D NAND4_X1
*I *880:ZN O *D AOI22_X1
*CAP
1 *883:A2 4.74145e-05
2 *880:ZN 4.74145e-05
3 *883:A2 *880:A1 1.4348e-05
4 *883:A2 *880:B2 3.90114e-06
5 *883:A2 *553:10 6.48216e-07
*RES
1 *880:ZN *883:A2 15.3571 
*END

*D_NET *243 0.000698267
*CONN
*I *883:A3 I *D NAND4_X1
*I *881:ZN O *D AOI22_X1
*CAP
1 *883:A3 0.000173522
2 *881:ZN 0.000173522
3 *883:A3 *881:A1 8.26038e-06
4 *883:A3 *881:B1 7.72537e-06
5 *883:A3 *883:A4 2.73303e-05
6 *883:A3 *621:42 8.25407e-05
7 *883:A3 *622:63 5.30804e-05
8 *856:S *883:A3 2.56243e-06
9 *883:A1 *883:A3 3.09411e-06
10 *1081:D *883:A3 1.32732e-05
11 *224:57 *883:A3 0.000153356
*RES
1 *881:ZN *883:A3 44.8929 
*END

*D_NET *244 0.000689135
*CONN
*I *883:A4 I *D NAND4_X1
*I *882:ZN O *D AOI22_X1
*CAP
1 *883:A4 0.000186503
2 *882:ZN 0.000186503
3 *883:A4 *881:B1 3.09411e-06
4 *883:A4 *553:10 3.29009e-05
5 *883:A4 *600:67 4.95679e-05
6 *883:A4 *621:42 0
7 *883:A4 *633:367 4.64499e-05
8 *856:S *883:A4 6.33259e-05
9 *883:A1 *883:A4 9.01846e-07
10 *883:A3 *883:A4 2.73303e-05
11 *1081:D *883:A4 3.34038e-05
12 *216:98 *883:A4 1.95884e-05
13 *224:57 *883:A4 2.09193e-05
14 *231:60 *883:A4 1.86471e-05
*RES
1 *882:ZN *883:A4 46.0357 
*END

*D_NET *245 0.00175431
*CONN
*I *884:A3 I *D NOR3_X1
*I *883:ZN O *D NAND4_X1
*CAP
1 *884:A3 5.0509e-05
2 *883:ZN 0.000449523
3 *245:12 0.000500032
4 *884:A3 *874:B1 0
5 *884:A3 *465:12 1.21927e-05
6 *884:A3 *600:155 0
7 *884:A3 *633:341 0
8 *884:A3 *649:44 0
9 *245:12 *849:A 6.71076e-05
10 *245:12 *889:A1 1.94663e-05
11 *245:12 *1026:CK 0.000113082
12 *245:12 *622:63 4.61365e-05
13 *245:12 *631:76 2.7036e-05
14 *245:12 *646:10 0.000119621
15 *245:12 *646:70 7.98408e-05
16 *884:A2 *884:A3 2.75346e-06
17 *1057:D *884:A3 1.72807e-06
18 *199:27 *245:12 1.8558e-06
19 *199:116 *245:12 1.16171e-05
20 *205:69 *245:12 0.000198255
21 *206:52 *245:12 9.83411e-06
22 *227:142 *245:12 4.37223e-05
*RES
1 *883:ZN *245:12 49.7057 
2 *245:12 *884:A3 20.0714 
*END

*D_NET *246 0.000839408
*CONN
*I *885:A I *D AOI21_X1
*I *884:ZN O *D NOR3_X1
*CAP
1 *885:A 1.03863e-05
2 *884:ZN 0.00032262
3 *246:10 0.000333006
4 *885:A *661:A 2.08416e-06
5 *246:10 *888:A1 0
6 *246:10 *890:A2 0
7 *246:10 *890:A3 9.78105e-06
8 *246:10 *978:CK 0
9 *246:10 *1098:CK 0
10 *246:10 *538:10 0
11 *246:10 *578:10 0
12 *246:10 *633:341 3.39975e-05
13 *246:10 *649:27 0
14 *246:10 *649:89 8.16656e-05
15 *246:10 *649:95 0
16 *885:B2 *246:10 1.45779e-05
17 *959:D *246:10 5.0051e-06
18 *1010:D *246:10 5.24467e-06
19 *181:119 *246:10 3.69646e-06
20 *184:104 *885:A 1.26998e-05
21 *184:104 *246:10 0
22 *184:115 *885:A 2.39679e-06
23 *184:115 *246:10 0
24 *184:121 *246:10 0
25 *199:116 *246:10 2.24634e-06
*RES
1 *884:ZN *246:10 49.1786 
2 *246:10 *885:A 6.25 
*END

*D_NET *247 0.00159265
*CONN
*I *890:A1 I *D NAND4_X1
*I *886:ZN O *D AOI22_X1
*CAP
1 *890:A1 0.000131024
2 *886:ZN 0.000199171
3 *247:10 0.000330195
4 *890:A1 *896:A2 2.70833e-06
5 *890:A1 *255:14 5.61532e-05
6 *890:A1 *578:10 3.85541e-05
7 *247:10 *856:A 1.16067e-05
8 *247:10 *889:B2 2.72417e-06
9 *247:10 *250:12 0.000477021
10 *247:10 *255:14 1.46393e-05
11 *247:10 *601:81 1.4293e-06
12 *889:A2 *247:10 4.18985e-05
13 *889:B1 *247:10 5.11191e-06
14 *891:B1 *890:A1 4.05349e-05
15 *894:B1 *247:10 3.89949e-05
16 *1050:D *890:A1 3.28714e-05
17 *205:73 *247:10 4.82847e-05
18 *205:75 *247:10 6.81816e-05
19 *214:14 *247:10 5.15469e-05
*RES
1 *886:ZN *247:10 49.1786 
2 *247:10 *890:A1 23.1786 
*END

*D_NET *248 0.000456279
*CONN
*I *890:A2 I *D NAND4_X1
*I *887:ZN O *D AOI22_X1
*CAP
1 *890:A2 0.000141931
2 *887:ZN 0.000141931
3 *890:A2 *835:A 9.83558e-06
4 *890:A2 *890:A4 2.00179e-05
5 *890:A2 *255:14 4.88571e-05
6 *890:A2 *538:10 9.50077e-06
7 *890:A2 *578:10 1.70653e-05
8 *890:A2 *601:57 1.26998e-05
9 *890:A2 *601:59 7.19036e-06
10 *890:A2 *601:65 2.80727e-05
11 *890:A2 *649:95 3.09143e-06
12 *1010:D *890:A2 1.0174e-05
13 *178:115 *890:A2 5.91164e-06
14 *246:10 *890:A2 0
*RES
1 *887:ZN *890:A2 36.7143 
*END

*D_NET *249 0.000261419
*CONN
*I *890:A3 I *D NAND4_X1
*I *888:ZN O *D AOI22_X1
*CAP
1 *890:A3 0.000100774
2 *888:ZN 0.000100774
3 *890:A3 *255:14 5.52692e-06
4 *890:A3 *633:341 2.11424e-05
5 *890:A3 *649:89 1.10934e-05
6 *181:119 *890:A3 2.83077e-06
7 *184:127 *890:A3 9.49563e-06
8 *246:10 *890:A3 9.78105e-06
*RES
1 *888:ZN *890:A3 31.6786 
*END

*D_NET *250 0.00153458
*CONN
*I *890:A4 I *D NAND4_X1
*I *889:ZN O *D AOI22_X1
*CAP
1 *890:A4 9.78402e-05
2 *889:ZN 0.000181304
3 *250:12 0.000279144
4 *890:A4 *800:A 3.08158e-06
5 *890:A4 *800:B 2.52965e-06
6 *890:A4 *255:14 1.90208e-06
7 *890:A4 *578:10 6.48738e-06
8 *890:A4 *601:71 2.45863e-07
9 *250:12 *821:A 4.52559e-05
10 *250:12 *255:14 0.000205785
11 *250:12 *601:79 1.10205e-05
12 *250:12 *601:81 5.10087e-06
13 *800:S *890:A4 1.63277e-06
14 *889:B1 *250:12 5.38494e-05
15 *890:A2 *890:A4 2.00179e-05
16 *1050:D *890:A4 6.48738e-06
17 *181:109 *250:12 1.11799e-05
18 *181:119 *890:A4 1.45878e-05
19 *190:165 *890:A4 6.99745e-06
20 *196:95 *890:A4 9.46434e-06
21 *202:52 *890:A4 9.02757e-05
22 *226:86 *890:A4 1.22775e-06
23 *226:98 *890:A4 2.1459e-06
24 *247:10 *250:12 0.000477021
*RES
1 *889:ZN *250:12 47.2857 
2 *250:12 *890:A4 34.1357 
*END

*D_NET *251 0.000137875
*CONN
*I *896:A2 I *D NOR3_X1
*I *890:ZN O *D NAND4_X1
*CAP
1 *896:A2 5.47322e-05
2 *890:ZN 5.47322e-05
3 *896:A2 *895:A4 0
4 *896:A2 *896:A3 2.39679e-06
5 *896:A2 *255:14 7.62912e-06
6 *896:A2 *577:12 0
7 *890:A1 *896:A2 2.70833e-06
8 *891:B1 *896:A2 2.44426e-06
9 *184:121 *896:A2 1.32323e-05
*RES
1 *890:ZN *896:A2 15.7857 
*END

*D_NET *252 0.000260593
*CONN
*I *895:A1 I *D NAND4_X1
*I *891:ZN O *D AOI22_X1
*CAP
1 *895:A1 9.44605e-05
2 *891:ZN 9.44605e-05
3 *895:A1 *814:A 3.65322e-06
4 *895:A1 *891:B2 8.34424e-06
5 *895:A1 *895:A4 0
6 *895:A1 *896:A3 4.35061e-05
7 *895:A1 *253:12 7.16188e-07
8 *895:A1 *599:238 1.51283e-05
9 *875:A2 *895:A1 0
10 *891:B1 *895:A1 3.23723e-07
11 *181:119 *895:A1 0
*RES
1 *891:ZN *895:A1 31.1786 
*END

*D_NET *253 0.000858443
*CONN
*I *895:A2 I *D NAND4_X1
*I *892:ZN O *D AOI22_X1
*CAP
1 *895:A2 8.71307e-06
2 *892:ZN 0.000269681
3 *253:12 0.000278394
4 *253:12 *828:A 2.75402e-05
5 *253:12 *841:A 2.14165e-06
6 *253:12 *841:B 0
7 *253:12 *842:A 2.13573e-06
8 *253:12 *893:A1 1.93179e-05
9 *253:12 *893:B2 1.55671e-05
10 *253:12 *1066:CK 1.13064e-05
11 *253:12 *474:8 4.8478e-05
12 *253:12 *529:8 3.18838e-06
13 *253:12 *546:8 2.05543e-06
14 *253:12 *569:10 3.61289e-05
15 *253:12 *601:55 0
16 *253:12 *649:121 2.00152e-05
17 *892:A2 *253:12 0.000104535
18 *895:A1 *253:12 7.16188e-07
19 *1018:D *253:12 1.68643e-06
20 *181:119 *253:12 0
21 *196:103 *253:12 6.84298e-06
*RES
1 *892:ZN *253:12 49.1072 
2 *253:12 *895:A2 5.92857 
*END

*D_NET *254 0.000275506
*CONN
*I *895:A3 I *D NAND4_X1
*I *893:ZN O *D AOI22_X1
*CAP
1 *895:A3 6.74668e-05
2 *893:ZN 6.74668e-05
3 *786:S *895:A3 5.01029e-05
4 *806:S *895:A3 0
5 *807:S *895:A3 0
6 *875:A2 *895:A3 3.98345e-05
7 *893:B1 *895:A3 5.06354e-05
*RES
1 *893:ZN *895:A3 30.4286 
*END

*D_NET *255 0.00120844
*CONN
*I *895:A4 I *D NAND4_X1
*I *894:ZN O *D AOI22_X1
*CAP
1 *895:A4 0.000104054
2 *894:ZN 0.000240512
3 *255:14 0.000344566
4 *895:A4 *876:B2 2.52965e-06
5 *895:A4 *896:A3 0
6 *895:A4 *577:12 6.82202e-07
7 *255:14 *800:B 3.85541e-05
8 *255:14 *821:A 1.72405e-05
9 *255:14 *554:12 2.4406e-05
10 *876:A2 *895:A4 4.87096e-06
11 *878:A3 *895:A4 3.83783e-05
12 *890:A1 *255:14 5.61532e-05
13 *890:A2 *255:14 4.88571e-05
14 *890:A3 *255:14 5.52692e-06
15 *890:A4 *255:14 1.90208e-06
16 *891:B1 *255:14 0
17 *895:A1 *895:A4 0
18 *896:A2 *895:A4 0
19 *896:A2 *255:14 7.62912e-06
20 *1050:D *255:14 3.21555e-05
21 *181:109 *255:14 0
22 *181:119 *895:A4 1.99969e-05
23 *181:119 *255:14 0
24 *247:10 *255:14 1.46393e-05
25 *250:12 *255:14 0.000205785
*RES
1 *894:ZN *255:14 47.8214 
2 *255:14 *895:A4 16.75 
*END

*D_NET *256 0.000228661
*CONN
*I *896:A3 I *D NOR3_X1
*I *895:ZN O *D NAND4_X1
*CAP
1 *896:A3 8.05905e-05
2 *895:ZN 8.05905e-05
3 *896:A3 *577:12 2.00179e-05
4 *878:A3 *896:A3 3.23723e-07
5 *891:B1 *896:A3 1.23562e-06
6 *895:A1 *896:A3 4.35061e-05
7 *895:A4 *896:A3 0
8 *896:A2 *896:A3 2.39679e-06
*RES
1 *895:ZN *896:A3 19.6786 
*END

*D_NET *257 0.000403854
*CONN
*I *897:A I *D AOI21_X1
*I *896:ZN O *D NOR3_X1
*CAP
1 *897:A 7.47384e-05
2 *896:ZN 7.47384e-05
3 *897:A *599:236 7.19036e-06
4 *897:A *599:238 0
5 *897:B1 *897:A 7.19036e-06
6 *897:B2 *897:A 4.24381e-05
7 *184:115 *897:A 1.72426e-05
8 *184:121 *897:A 0.000180316
*RES
1 *896:ZN *897:A 31.1786 
*END

*D_NET *258 0.00090426
*CONN
*I *902:A1 I *D AND4_X1
*I *898:ZN O *D AOI222_X1
*CAP
1 *902:A1 0
2 *898:ZN 0.000264823
3 *258:24 0.000264823
4 *258:24 *787:A 1.51932e-05
5 *258:24 *801:A 0
6 *258:24 *846:A 3.40082e-05
7 *258:24 *846:B 8.43215e-07
8 *258:24 *850:A 2.43548e-06
9 *258:24 *850:B 6.4319e-05
10 *258:24 *850:S 7.72537e-06
11 *258:24 *898:A1 9.01091e-06
12 *258:24 *901:A1 1.60038e-06
13 *258:24 *901:B2 3.76469e-05
14 *258:24 *1051:CK 2.16072e-07
15 *258:24 *1067:CK 0
16 *258:24 *260:18 2.76111e-05
17 *258:24 *602:58 0
18 *258:24 *602:62 0
19 *258:24 *617:18 0
20 *258:24 *634:39 0
21 *258:24 *634:54 0
22 *898:A2 *258:24 8.50516e-05
23 *938:B1 *258:24 5.14203e-05
24 *995:D *258:24 3.64208e-05
25 *1006:D *258:24 1.11168e-06
*RES
1 *898:ZN *258:24 49.4286 
2 *258:24 *902:A1 5 
*END

*D_NET *259 0.000612427
*CONN
*I *902:A2 I *D AND4_X1
*I *899:ZN O *D AOI22_X1
*CAP
1 *902:A2 0.000216599
2 *899:ZN 0.000216599
3 *902:A2 *766:A 0
4 *902:A2 *773:A 9.32048e-05
5 *902:A2 *899:A1 0
6 *902:A2 *899:B2 1.40196e-05
7 *902:A2 *602:84 0
8 *902:A2 *602:95 0
9 *902:A2 *618:37 3.35822e-05
10 *802:S *902:A2 0
11 *899:A2 *902:A2 0
12 *1083:D *902:A2 3.84222e-05
13 *208:36 *902:A2 0
*RES
1 *899:ZN *902:A2 43.8572 
*END

*D_NET *260 0.000930015
*CONN
*I *902:A3 I *D AND4_X1
*I *900:ZN O *D AOI222_X1
*CAP
1 *902:A3 0
2 *900:ZN 0.000221102
3 *260:18 0.000221102
4 *260:18 *815:A 2.89018e-05
5 *260:18 *846:B 3.94694e-05
6 *260:18 *846:S 0.000156349
7 *260:18 *900:A1 7.10056e-06
8 *260:18 *902:A4 8.50486e-05
9 *260:18 *936:B1 1.36813e-05
10 *260:18 *938:A1 1.87885e-05
11 *260:18 *1035:CK 1.43238e-06
12 *260:18 *605:53 1.90405e-05
13 *260:18 *619:24 1.36993e-05
14 *260:18 *633:63 3.68505e-05
15 *938:B1 *260:18 1.98806e-05
16 *995:D *260:18 1.65627e-05
17 *1035:D *260:18 3.39487e-06
18 *258:24 *260:18 2.76111e-05
*RES
1 *900:ZN *260:18 48.9643 
2 *260:18 *902:A3 5 
*END

*D_NET *261 0.00069143
*CONN
*I *902:A4 I *D AND4_X1
*I *901:ZN O *D AOI22_X1
*CAP
1 *902:A4 0.000165255
2 *901:ZN 0.000165255
3 *902:A4 *850:B 9.01846e-07
4 *902:A4 *1199:A 5.60371e-05
5 *902:A4 *523:10 4.59099e-06
6 *902:A4 *605:68 0
7 *902:A4 *617:18 6.32404e-05
8 *902:A4 *634:54 5.34749e-05
9 *901:A2 *902:A4 2.94435e-05
10 *995:D *902:A4 5.11918e-05
11 *190:40 *902:A4 7.54346e-07
12 *227:30 *902:A4 1.62377e-05
13 *260:18 *902:A4 8.50486e-05
*RES
1 *901:ZN *902:A4 44.2143 
*END

*D_NET *262 0.001602
*CONN
*I *905:A1 I *D NAND3_X1
*I *902:ZN O *D AND4_X1
*CAP
1 *905:A1 3.4227e-05
2 *902:ZN 0
3 *262:10 0.000320709
4 *262:6 0.000286482
5 *905:A1 *905:A2 2.75346e-06
6 *905:A1 *905:A3 1.2547e-05
7 *262:10 *602:95 1.89625e-05
8 *262:10 *602:110 1.93974e-05
9 *262:10 *629:20 2.50339e-06
10 *900:B1 *262:10 0
11 *1003:D *262:10 1.46266e-05
12 *190:22 *262:10 0.000432501
13 *190:30 *262:10 0
14 *218:8 *905:A1 7.16188e-07
15 *218:18 *905:A1 4.15825e-06
16 *227:12 *262:10 0.000452416
17 *229:10 *262:10 0
*RES
1 *902:ZN *262:6 10 
2 *262:6 *262:10 49.3572 
3 *262:10 *905:A1 8.75 
*END

*D_NET *263 0.000308402
*CONN
*I *905:A2 I *D NAND3_X1
*I *903:ZN O *D AOI222_X1
*CAP
1 *905:A2 9.47868e-05
2 *903:ZN 9.47868e-05
3 *905:A2 *659:A 1.28122e-06
4 *905:A2 *903:A1 5.29415e-05
5 *905:A2 *905:A3 2.75346e-06
6 *905:A2 *979:CK 6.37013e-06
7 *905:A2 *265:8 3.0984e-05
8 *905:A1 *905:A2 2.75346e-06
9 *941:A1 *905:A2 1.80259e-05
10 *158:14 *905:A2 2.11815e-06
11 *218:8 *905:A2 1.60038e-06
*RES
1 *903:ZN *905:A2 22.1786 
*END

*D_NET *264 0.000578001
*CONN
*I *905:A3 I *D NAND3_X1
*I *904:ZN O *D AOI222_X1
*CAP
1 *905:A3 0.000179254
2 *904:ZN 0.000179254
3 *905:A3 *659:A 0
4 *905:A3 *759:B 1.2358e-05
5 *905:A3 *808:A 0.000125015
6 *905:A3 *864:B 2.52965e-06
7 *905:A3 *904:B2 1.91375e-05
8 *905:A3 *904:C2 5.76113e-07
9 *905:A3 *555:10 8.64288e-07
10 *905:A3 *602:168 9.92691e-06
11 *905:A1 *905:A3 1.2547e-05
12 *905:A2 *905:A3 2.75346e-06
13 *1043:D *905:A3 1.52753e-05
14 *158:14 *905:A3 1.37647e-05
15 *218:18 *905:A3 1.18232e-06
16 *223:43 *905:A3 3.5628e-06
*RES
1 *904:ZN *905:A3 33.2143 
*END

*D_NET *265 0.00257015
*CONN
*I *906:B I *D MUX2_X1
*I *905:ZN O *D NAND3_X1
*CAP
1 *906:B 0.000184747
2 *905:ZN 7.37761e-05
3 *265:12 0.000459839
4 *265:8 0.000348869
5 *906:B *670:B 4.1554e-07
6 *906:B *906:A 1.21479e-05
7 *906:B *639:64 6.55208e-06
8 *265:8 *683:A2 1.19839e-05
9 *265:8 *726:A1 1.90208e-06
10 *265:8 *612:55 1.12494e-05
11 *265:12 *670:B 3.5069e-06
12 *265:12 *616:16 1.77592e-05
13 *265:12 *630:16 0
14 *683:A1 *265:12 5.56848e-05
15 *691:A2 *906:B 5.94167e-07
16 *694:A2 *906:B 6.59106e-06
17 *712:A2 *906:B 1.11258e-05
18 *727:A2 *265:12 1.78091e-05
19 *755:A2 *265:12 3.01743e-06
20 *903:B1 *265:12 9.36271e-05
21 *905:A2 *265:8 3.0984e-05
22 *941:A1 *265:8 1.73125e-05
23 *961:D *906:B 8.43215e-07
24 *155:10 *906:B 1.43544e-05
25 *155:12 *906:B 5.42657e-05
26 *155:47 *906:B 3.06715e-05
27 *155:60 *906:B 4.74992e-05
28 *156:10 *265:12 0.000105291
29 *183:10 *906:B 4.07203e-06
30 *184:8 *906:B 0.000106084
31 *184:10 *906:B 0.000597155
32 *184:10 *265:12 2.12792e-05
33 *186:10 *906:B 2.89446e-05
34 *206:10 *265:12 2.04138e-05
35 *206:18 *265:12 4.67945e-05
36 *217:48 *265:12 7.48213e-05
37 *218:8 *265:8 2.58289e-05
38 *218:60 *265:12 1.78091e-05
39 *234:14 *265:12 4.52612e-06
*RES
1 *905:ZN *265:8 19.75 
2 *265:8 *265:12 37.6072 
3 *265:12 *906:B 48.8214 
*END

*D_NET *266 0.000538894
*CONN
*I *911:A1 I *D NAND4_X1
*I *907:ZN O *D AOI22_X1
*CAP
1 *911:A1 0.000208916
2 *907:ZN 0.000208916
3 *911:A1 *802:A 0
4 *911:A1 *907:A1 2.73619e-05
5 *911:A1 *908:B2 3.09411e-06
6 *911:A1 *910:A1 4.72636e-05
7 *911:A1 *911:A2 2.68294e-05
8 *911:A1 *911:A3 0
9 *911:A1 *911:A4 1.43238e-06
10 *911:A1 *1052:CK 0
11 *911:A1 *1201:A 0
12 *911:A1 *500:26 2.37093e-06
13 *911:A1 *626:57 1.27666e-06
14 *773:S *911:A1 2.52965e-06
15 *908:A2 *911:A1 0
16 *996:D *911:A1 0
17 *1052:D *911:A1 8.90245e-06
*RES
1 *907:ZN *911:A1 33.3929 
*END

*D_NET *267 0.00019275
*CONN
*I *911:A2 I *D NAND4_X1
*I *908:ZN O *D AOI22_X1
*CAP
1 *911:A2 4.81659e-05
2 *908:ZN 4.81659e-05
3 *911:A2 *908:A1 6.85467e-06
4 *911:A2 *911:A4 1.08378e-05
5 *911:A2 *270:14 3.56794e-06
6 *911:A2 *624:10 7.17294e-06
7 *908:A2 *911:A2 4.1155e-05
8 *911:A1 *911:A2 2.68294e-05
*RES
1 *908:ZN *911:A2 26.3929 
*END

*D_NET *268 0.000447767
*CONN
*I *911:A3 I *D NAND4_X1
*I *909:ZN O *D AOI22_X1
*CAP
1 *911:A3 0.000136226
2 *909:ZN 0.000136226
3 *911:A3 *909:B2 3.35822e-05
4 *911:A3 *1004:CK 0
5 *911:A3 *270:14 8.0139e-05
6 *911:A3 *624:10 1.29525e-05
7 *909:B1 *911:A3 3.88456e-06
8 *911:A1 *911:A3 0
9 *996:D *911:A3 4.47576e-05
10 *1004:D *911:A3 0
11 *212:36 *911:A3 0
*RES
1 *909:ZN *911:A3 36.5357 
*END

*D_NET *269 8.54843e-05
*CONN
*I *911:A4 I *D NAND4_X1
*I *910:ZN O *D AOI22_X1
*CAP
1 *911:A4 2.37014e-05
2 *910:ZN 2.37014e-05
3 *911:A4 *500:26 3.73965e-06
4 *911:A4 *626:57 2.20718e-05
5 *911:A1 *911:A4 1.43238e-06
6 *911:A2 *911:A4 1.08378e-05
*RES
1 *910:ZN *911:A4 13.25 
*END

*D_NET *270 0.00312045
*CONN
*I *917:A2 I *D NOR3_X1
*I *911:ZN O *D NAND4_X1
*CAP
1 *917:A2 9.95182e-06
2 *911:ZN 0.000263841
3 *270:20 0.00070707
4 *270:18 0.000779961
5 *270:14 0.000346684
6 *917:A2 *916:A2 2.11815e-06
7 *917:A2 *917:A3 1.21774e-06
8 *270:14 *776:A 0
9 *270:14 *1004:CK 5.62265e-05
10 *270:14 *624:10 2.21042e-05
11 *270:14 *632:70 1.49798e-05
12 *270:14 *633:97 0
13 *270:14 *637:35 0
14 *270:14 *637:70 1.32348e-05
15 *270:18 *818:A 0.000155688
16 *270:18 *934:B2 0
17 *270:20 *882:A1 2.33933e-05
18 *270:20 *932:A1 5.39659e-06
19 *270:20 *1028:CK 2.1739e-05
20 *270:20 *537:10 4.24402e-05
21 *270:20 *558:8 1.72272e-05
22 *270:20 *561:10 4.87154e-05
23 *270:20 *623:10 0
24 *270:20 *630:39 1.95724e-05
25 *270:20 *632:36 9.47615e-06
26 *270:20 *633:175 0
27 *270:20 *640:14 0
28 *270:20 *641:34 3.81756e-05
29 *270:20 *641:58 1.46485e-05
30 *908:A2 *270:14 4.04557e-06
31 *911:A2 *270:14 3.56794e-06
32 *911:A3 *270:14 8.0139e-05
33 *933:A2 *270:14 6.85774e-07
34 *996:D *270:14 5.11191e-06
35 *1009:D *270:20 5.5389e-05
36 *1030:D *270:20 1.67316e-05
37 *1033:D *270:20 2.90135e-05
38 *1038:D *270:14 1.91975e-05
39 *1046:D *270:18 0
40 *184:52 *917:A2 2.83434e-06
41 *193:20 *270:20 0
42 *196:12 *270:20 0
43 *196:59 *270:20 0
44 *202:48 *270:20 7.97076e-06
45 *208:22 *270:14 9.5257e-06
46 *208:36 *270:14 6.99531e-06
47 *212:32 *270:20 9.01367e-05
48 *212:36 *270:14 0
49 *212:36 *270:18 1.11608e-05
50 *212:36 *270:20 4.38894e-06
51 *227:127 *270:20 9.20466e-05
52 *227:142 *270:20 5.84717e-05
53 *231:60 *270:20 9.17395e-06
*RES
1 *911:ZN *270:14 49.9286 
2 *270:14 *270:18 10.8393 
3 *270:18 *270:20 79.9822 
4 *270:20 *917:A2 11.25 
*END

*D_NET *271 0.00143196
*CONN
*I *916:A1 I *D NAND4_X1
*I *912:ZN O *D AOI22_X1
*CAP
1 *916:A1 0
2 *912:ZN 0.000213436
3 *271:18 0.000213436
4 *271:18 *809:A 0
5 *271:18 *816:S 0.000111281
6 *271:18 *620:18 0.000389011
7 *271:18 *623:10 3.57627e-07
8 *912:A2 *271:18 0.000251244
9 *193:14 *271:18 6.24354e-05
10 *193:142 *271:18 0.000190759
*RES
1 *912:ZN *271:18 48.1014 
2 *271:18 *916:A1 5 
*END

*D_NET *272 0.000290053
*CONN
*I *916:A2 I *D NAND4_X1
*I *913:ZN O *D AOI22_X1
*CAP
1 *916:A2 9.42675e-05
2 *913:ZN 9.42675e-05
3 *916:A2 *916:A3 2.2113e-05
4 *916:A2 *917:A3 3.65818e-05
5 *916:A2 *476:8 5.40219e-06
6 *707:A2 *916:A2 0
7 *917:A2 *916:A2 2.11815e-06
8 *184:52 *916:A2 8.30282e-06
9 *188:134 *916:A2 0
10 *202:27 *916:A2 2.75346e-06
11 *202:48 *916:A2 2.42461e-05
*RES
1 *913:ZN *916:A2 22.5357 
*END

*D_NET *273 0.000282906
*CONN
*I *916:A3 I *D NAND4_X1
*I *914:ZN O *D AOI22_X1
*CAP
1 *916:A3 7.42436e-05
2 *914:ZN 7.42436e-05
3 *916:A3 *788:A 6.28922e-06
4 *916:A3 *916:A4 3.65322e-06
5 *916:A3 *476:8 2.73619e-05
6 *916:A2 *916:A3 2.2113e-05
7 *195:44 *916:A3 4.69857e-05
8 *202:48 *916:A3 2.80161e-05
*RES
1 *914:ZN *916:A3 30.6071 
*END

*D_NET *274 0.0010913
*CONN
*I *916:A4 I *D NAND4_X1
*I *915:ZN O *D AOI22_X1
*CAP
1 *916:A4 9.0976e-05
2 *915:ZN 0.000251318
3 *274:14 0.000342294
4 *916:A4 *686:A 8.74148e-06
5 *916:A4 *623:10 3.08703e-06
6 *916:A4 *641:23 2.14856e-06
7 *274:14 *823:A 6.85596e-06
8 *274:14 *914:B2 0.000115689
9 *274:14 *556:14 2.09665e-05
10 *274:14 *620:12 8.8707e-05
11 *274:14 *620:14 3.88788e-06
12 *274:14 *641:23 5.75619e-05
13 *809:S *274:14 0
14 *830:S *274:14 1.60566e-05
15 *914:B1 *274:14 2.1988e-06
16 *916:A3 *916:A4 3.65322e-06
17 *181:80 *274:14 0
18 *195:44 *916:A4 2.99396e-05
19 *195:44 *274:14 0
20 *196:8 *274:14 1.0236e-05
21 *202:27 *274:14 0
22 *202:48 *916:A4 3.01408e-05
23 *234:33 *274:14 6.84237e-06
*RES
1 *915:ZN *274:14 46.7143 
2 *274:14 *916:A4 26.2857 
*END

*D_NET *275 0.000107241
*CONN
*I *917:A3 I *D NOR3_X1
*I *916:ZN O *D NAND4_X1
*CAP
1 *917:A3 3.47206e-05
2 *916:ZN 3.47206e-05
3 *916:A2 *917:A3 3.65818e-05
4 *917:A2 *917:A3 1.21774e-06
5 *184:67 *917:A3 0
*RES
1 *916:ZN *917:A3 14.1786 
*END

*D_NET *276 0.000284514
*CONN
*I *918:A I *D AOI21_X1
*I *917:ZN O *D NOR3_X1
*CAP
1 *918:A 8.15787e-05
2 *917:ZN 8.15787e-05
3 *918:A *599:211 1.34605e-05
4 *918:A *623:10 2.63964e-05
5 *918:A *641:58 2.03683e-05
6 *918:A *641:71 3.98434e-05
7 *918:B1 *918:A 1.04674e-05
8 *918:B2 *918:A 0
9 *962:D *918:A 0
10 *184:67 *918:A 1.08206e-05
11 *188:134 *918:A 0
*RES
1 *917:ZN *918:A 31.6429 
*END

*D_NET *277 0.000219567
*CONN
*I *923:A1 I *D NAND4_X1
*I *919:ZN O *D AOI22_X1
*CAP
1 *923:A1 6.3725e-05
2 *919:ZN 6.3725e-05
3 *923:A1 *919:A1 3.01743e-06
4 *923:A1 *929:A2 4.93896e-05
5 *923:A1 *621:61 2.00179e-05
6 *188:83 *923:A1 1.96924e-05
7 *223:96 *923:A1 0
*RES
1 *919:ZN *923:A1 28.3929 
*END

*D_NET *278 0.000963736
*CONN
*I *923:A2 I *D NAND4_X1
*I *920:ZN O *D AOI22_X1
*CAP
1 *923:A2 0.000283257
2 *920:ZN 0.000283257
3 *923:A2 *817:A 0
4 *923:A2 *824:A 3.49157e-05
5 *923:A2 *920:A1 6.78641e-05
6 *923:A2 *921:A1 0
7 *923:A2 *621:48 7.34533e-06
8 *923:A2 *621:61 5.11574e-06
9 *997:D *923:A2 9.95569e-06
10 *223:60 *923:A2 4.04707e-06
11 *223:83 *923:A2 0.000169409
12 *233:48 *923:A2 9.85702e-05
*RES
1 *920:ZN *923:A2 48.0357 
*END

*D_NET *279 0.000642377
*CONN
*I *923:A3 I *D NAND4_X1
*I *921:ZN O *D AOI22_X1
*CAP
1 *923:A3 0.000206529
2 *921:ZN 0.000206529
3 *923:A3 *817:A 3.53635e-05
4 *923:A3 *817:B 7.19036e-06
5 *923:A3 *921:A1 0.000102519
6 *923:A3 *921:B2 3.65322e-06
7 *923:A3 *997:CK 1.01605e-05
8 *923:A3 *1037:CK 5.43947e-06
9 *923:A3 *600:29 0
10 *923:A3 *604:63 1.4491e-05
11 *923:A3 *604:74 0
12 *923:A3 *621:61 7.34401e-06
13 *757:S *923:A3 4.62577e-06
14 *1037:D *923:A3 2.28879e-05
15 *206:62 *923:A3 2.39679e-06
16 *223:96 *923:A3 1.32476e-05
*RES
1 *921:ZN *923:A3 45.4286 
*END

*D_NET *280 0.000696122
*CONN
*I *923:A4 I *D NAND4_X1
*I *922:ZN O *D AOI22_X1
*CAP
1 *923:A4 0.000220366
2 *922:ZN 0.000220366
3 *923:A4 *922:B1 7.91338e-05
4 *923:A4 *929:A2 5.60236e-05
5 *923:A4 *929:A3 0
6 *923:A4 *952:A3 0
7 *923:A4 *309:22 0
8 *923:A4 *604:36 0
9 *954:B2 *923:A4 6.48216e-07
10 *965:D *923:A4 1.91954e-06
11 *188:87 *923:A4 7.19036e-06
12 *188:94 *923:A4 9.72429e-05
13 *223:83 *923:A4 1.32323e-05
*RES
1 *922:ZN *923:A4 36.9286 
*END

*D_NET *281 0.000704292
*CONN
*I *929:A2 I *D NOR3_X1
*I *923:ZN O *D NAND4_X1
*CAP
1 *929:A2 0.000184004
2 *923:ZN 0.000184004
3 *929:A2 *803:A 4.32144e-07
4 *929:A2 *819:S 1.61002e-06
5 *929:A2 *922:B1 2.87703e-06
6 *929:A2 *929:A3 3.82041e-05
7 *929:A2 *948:A1 4.37715e-05
8 *929:A2 *952:A1 3.02372e-05
9 *929:A2 *604:36 0
10 *929:A2 *621:61 2.73238e-06
11 *929:A2 *625:41 7.47756e-06
12 *929:A2 *625:43 6.03486e-06
13 *803:S *929:A2 3.08261e-05
14 *923:A1 *929:A2 4.93896e-05
15 *923:A4 *929:A2 5.60236e-05
16 *184:158 *929:A2 8.26038e-06
17 *188:106 *929:A2 1.48912e-05
18 *226:106 *929:A2 4.35166e-05
*RES
1 *923:ZN *929:A2 45.5 
*END

*D_NET *282 0.000236712
*CONN
*I *928:A1 I *D NAND4_X1
*I *924:ZN O *D AOI22_X1
*CAP
1 *928:A1 0.000107616
2 *924:ZN 0.000107616
3 *928:A1 *847:S 1.80869e-05
4 *928:A1 *928:A3 2.52965e-06
5 *928:A1 *928:A4 8.64288e-07
6 *928:A1 *945:A2 0
*RES
1 *924:ZN *928:A1 21.2857 
*END

*D_NET *283 0.000856127
*CONN
*I *928:A2 I *D NAND4_X1
*I *925:ZN O *D AOI22_X1
*CAP
1 *928:A2 0.000128854
2 *925:ZN 0.000128854
3 *928:A2 *925:B2 5.77417e-06
4 *928:A2 *944:A2 1.88334e-06
5 *928:A2 *286:8 0.000100098
6 *928:A2 *606:48 0
7 *928:A2 *627:55 2.45626e-06
8 *928:A2 *629:58 0.000378769
9 *925:B1 *928:A2 1.10536e-05
10 *181:54 *928:A2 9.08726e-05
11 *191:82 *928:A2 7.51151e-06
*RES
1 *925:ZN *928:A2 44.0357 
*END

*D_NET *284 0.000486493
*CONN
*I *928:A3 I *D NAND4_X1
*I *926:ZN O *D AOI22_X1
*CAP
1 *928:A3 8.67141e-05
2 *926:ZN 8.67141e-05
3 *928:A3 *926:B1 6.98208e-05
4 *928:A3 *927:A2 6.76378e-05
5 *928:A3 *927:B1 0
6 *928:A3 *928:A4 7.19036e-06
7 *928:A3 *944:B1 8.03236e-06
8 *928:A3 *1069:CK 4.32319e-05
9 *928:A3 *627:55 0.000105043
10 *928:A3 *627:71 9.57948e-06
11 *928:A1 *928:A3 2.52965e-06
*RES
1 *926:ZN *928:A3 35.0714 
*END

*D_NET *285 0.000189401
*CONN
*I *928:A4 I *D NAND4_X1
*I *927:ZN O *D AOI22_X1
*CAP
1 *928:A4 5.08445e-05
2 *927:ZN 5.08445e-05
3 *928:A4 *945:A2 4.04215e-06
4 *928:A4 *624:71 7.72537e-06
5 *928:A4 *627:55 6.78899e-05
6 *928:A1 *928:A4 8.64288e-07
7 *928:A3 *928:A4 7.19036e-06
8 *199:48 *928:A4 0
*RES
1 *927:ZN *928:A4 26.1429 
*END

*D_NET *286 0.00164273
*CONN
*I *929:A3 I *D NOR3_X1
*I *928:ZN O *D NAND4_X1
*CAP
1 *929:A3 0.00011777
2 *928:ZN 0.000187492
3 *286:8 0.000305262
4 *929:A3 *763:A 1.34605e-05
5 *929:A3 *919:B2 6.54288e-06
6 *929:A3 *948:A1 8.89978e-06
7 *929:A3 *948:B1 2.00152e-05
8 *929:A3 *952:A3 8.00646e-06
9 *929:A3 *645:65 0
10 *286:8 *951:B2 2.89018e-05
11 *286:8 *503:8 0.000195975
12 *286:8 *627:47 2.45782e-05
13 *286:8 *627:55 9.55926e-06
14 *923:A4 *929:A3 0
15 *925:B1 *286:8 0.000129992
16 *928:A2 *286:8 0.000100098
17 *929:A2 *929:A3 3.82041e-05
18 *181:54 *286:8 9.03309e-05
19 *188:94 *929:A3 0
20 *193:113 *286:8 0.000230172
21 *226:110 *286:8 0.000127469
*RES
1 *928:ZN *286:8 48.25 
2 *286:8 *929:A3 23.25 
*END

*D_NET *287 0.000449804
*CONN
*I *930:A I *D AOI21_X1
*I *929:ZN O *D NOR3_X1
*CAP
1 *930:A 4.01348e-05
2 *929:ZN 4.01348e-05
3 *930:A *309:22 6.48741e-05
4 *930:B2 *930:A 4.24081e-05
5 *954:B2 *930:A 0.000117216
6 *184:152 *930:A 5.14099e-05
7 *184:158 *930:A 9.36271e-05
*RES
1 *929:ZN *930:A 30.4286 
*END

*D_NET *288 0.000451722
*CONN
*I *935:A1 I *D NAND4_X1
*I *931:ZN O *D AOI22_X1
*CAP
1 *935:A1 6.80517e-05
2 *931:ZN 6.80517e-05
3 *935:A1 *931:A1 3.471e-05
4 *935:A1 *507:14 6.60545e-05
5 *935:A1 *626:22 0.000115174
6 *188:83 *935:A1 4.92995e-06
7 *196:28 *935:A1 9.47496e-05
*RES
1 *931:ZN *935:A1 31.7857 
*END

*D_NET *289 0.000596901
*CONN
*I *935:A2 I *D NAND4_X1
*I *932:ZN O *D AOI22_X1
*CAP
1 *935:A2 0.000186905
2 *932:ZN 0.000186905
3 *935:A2 *932:B2 1.13504e-06
4 *935:A2 *935:A3 1.01771e-05
5 *935:A2 *1030:CK 1.57311e-05
6 *935:A2 *291:14 1.27666e-06
7 *935:A2 *518:8 0.000132863
8 *935:A2 *630:35 1.81777e-05
9 *935:A2 *633:25 5.10087e-06
10 *935:A2 *637:8 7.19036e-06
11 *935:A2 *637:12 9.11897e-09
12 *935:A2 *637:109 2.51756e-05
13 *932:B1 *935:A2 6.25396e-06
14 *208:22 *935:A2 0
15 *224:29 *935:A2 0
*RES
1 *932:ZN *935:A2 42.9643 
*END

*D_NET *290 0.00118411
*CONN
*I *935:A3 I *D NAND4_X1
*I *933:ZN O *D AOI22_X1
*CAP
1 *935:A3 2.21779e-05
2 *933:ZN 0.000199156
3 *290:12 0.000221334
4 *935:A3 *935:A4 1.25189e-05
5 *935:A3 *637:12 4.65017e-06
6 *290:12 *818:A 3.83603e-05
7 *290:12 *933:A1 0.000127275
8 *290:12 *603:83 0.000199629
9 *290:12 *603:85 0.000162618
10 *290:12 *626:33 0.000154678
11 *935:A2 *935:A3 1.01771e-05
12 *211:44 *290:12 3.15351e-05
*RES
1 *933:ZN *290:12 45.8214 
2 *290:12 *935:A3 12.75 
*END

*D_NET *291 0.00109669
*CONN
*I *935:A4 I *D NAND4_X1
*I *934:ZN O *D AOI22_X1
*CAP
1 *935:A4 4.36531e-05
2 *934:ZN 0.000215491
3 *291:14 0.000259144
4 *935:A4 *1075:CK 2.39679e-06
5 *935:A4 *603:85 5.34817e-05
6 *935:A4 *637:12 1.19839e-05
7 *291:14 *818:A 6.84742e-06
8 *291:14 *860:B 1.93096e-05
9 *291:14 *932:A1 1.91498e-06
10 *291:14 *932:B2 4.30003e-05
11 *291:14 *934:A1 4.67145e-05
12 *291:14 *574:8 3.90865e-05
13 *291:14 *605:96 0
14 *291:14 *605:111 4.55949e-09
15 *291:14 *623:8 0
16 *291:14 *628:52 6.69642e-05
17 *291:14 *630:52 0
18 *291:14 *633:46 7.37789e-06
19 *291:14 *637:27 4.72588e-05
20 *935:A2 *291:14 1.27666e-06
21 *935:A3 *935:A4 1.25189e-05
22 *1172:A *291:14 6.74194e-06
23 *191:64 *291:14 4.9182e-05
24 *191:80 *291:14 1.77822e-05
25 *196:28 *935:A4 0.000144557
26 *224:29 *291:14 0
*RES
1 *934:ZN *291:14 47.3929 
2 *291:14 *935:A4 18.9643 
*END

*D_NET *292 0.00101566
*CONN
*I *941:A2 I *D NOR3_X1
*I *935:ZN O *D NAND4_X1
*CAP
1 *941:A2 0
2 *935:ZN 0.00021752
3 *292:12 0.00021752
4 *292:12 *780:B 1.87418e-05
5 *292:12 *836:A 0
6 *292:12 *903:C1 2.94837e-05
7 *292:12 *903:C2 0.000149923
8 *292:12 *630:35 0.000175332
9 *938:A2 *292:12 2.21085e-05
10 *941:A1 *292:12 8.00929e-05
11 *223:35 *292:12 0.000104942
*RES
1 *935:ZN *292:12 48.75 
2 *292:12 *941:A2 5 
*END

*D_NET *293 0.000662384
*CONN
*I *940:A1 I *D NAND4_X1
*I *936:ZN O *D AOI22_X1
*CAP
1 *940:A1 0.000116472
2 *936:ZN 0.000116472
3 *940:A1 *936:B1 5.54348e-05
4 *940:A1 *940:A2 3.89326e-05
5 *940:A1 *940:A4 9.62051e-07
6 *940:A1 *942:A 7.66675e-07
7 *940:A1 *617:8 6.46084e-05
8 *940:A1 *617:18 4.402e-06
9 *901:A2 *940:A1 0.00025777
10 *206:18 *940:A1 3.47057e-06
11 *223:35 *940:A1 3.09411e-06
*RES
1 *936:ZN *940:A1 41.3572 
*END

*D_NET *294 0.00078432
*CONN
*I *940:A2 I *D NAND4_X1
*I *937:ZN O *D AOI22_X1
*CAP
1 *940:A2 0.000120452
2 *937:ZN 0.000120452
3 *940:A2 *936:A1 2.99872e-05
4 *940:A2 *936:B2 2.4467e-05
5 *940:A2 *937:A1 2.39345e-05
6 *940:A2 *940:A3 0.000203186
7 *940:A2 *618:16 7.47756e-06
8 *901:A2 *940:A2 0.000147524
9 *939:A2 *940:A2 6.77477e-05
10 *940:A1 *940:A2 3.89326e-05
11 *206:18 *940:A2 1.58812e-07
*RES
1 *937:ZN *940:A2 43.8572 
*END

*D_NET *295 0.000885832
*CONN
*I *940:A3 I *D NAND4_X1
*I *938:ZN O *D AOI22_X1
*CAP
1 *940:A3 0.000180745
2 *938:ZN 0.000180745
3 *940:A3 *936:B1 7.95758e-07
4 *940:A3 *937:A1 1.02705e-05
5 *940:A3 *938:B2 0
6 *940:A3 *940:A4 7.29164e-07
7 *940:A3 *941:A3 8.24627e-06
8 *940:A3 *618:16 2.37916e-06
9 *938:A2 *940:A3 0.000174155
10 *939:A2 *940:A3 4.29063e-05
11 *940:A2 *940:A3 0.000203186
12 *206:18 *940:A3 8.16741e-05
13 *206:20 *940:A3 0
*RES
1 *938:ZN *940:A3 49.6786 
*END

*D_NET *296 8.30107e-05
*CONN
*I *940:A4 I *D NAND4_X1
*I *939:ZN O *D AOI22_X1
*CAP
1 *940:A4 3.98268e-05
2 *939:ZN 3.98268e-05
3 *940:A4 *939:A1 1.66585e-06
4 *940:A1 *940:A4 9.62051e-07
5 *940:A3 *940:A4 7.29164e-07
6 *1102:D *940:A4 0
7 *223:35 *940:A4 0
*RES
1 *939:ZN *940:A4 14.2143 
*END

*D_NET *297 0.000140008
*CONN
*I *941:A3 I *D NOR3_X1
*I *940:ZN O *D NAND4_X1
*CAP
1 *941:A3 5.5368e-05
2 *940:ZN 5.5368e-05
3 *941:A3 *942:A 1.04102e-05
4 *941:A3 *618:12 7.96507e-06
5 *940:A3 *941:A3 8.24627e-06
6 *941:A1 *941:A3 1.21774e-06
7 *223:35 *941:A3 1.43238e-06
*RES
1 *940:ZN *941:A3 16.1071 
*END

*D_NET *298 0.000523041
*CONN
*I *942:A I *D AOI21_X1
*I *941:ZN O *D NOR3_X1
*CAP
1 *942:A 0.00015713
2 *941:ZN 0.00015713
3 *942:A *864:B 1.55645e-05
4 *942:A *979:CK 1.23738e-05
5 *942:A *510:12 0
6 *942:A *617:8 2.43205e-06
7 *940:A1 *942:A 7.66675e-07
8 *941:A3 *942:A 1.04102e-05
9 *942:B1 *942:A 4.55745e-05
10 *942:B2 *942:A 2.83077e-06
11 *979:D *942:A 4.86762e-05
12 *206:18 *942:A 5.38264e-05
13 *223:35 *942:A 5.8311e-06
14 *228:10 *942:A 1.0495e-05
*RES
1 *941:ZN *942:A 41.2143 
*END

*D_NET *299 0.000410782
*CONN
*I *947:A1 I *D NAND4_X1
*I *943:ZN O *D AOI22_X1
*CAP
1 *947:A1 0.00013231
2 *943:ZN 0.00013231
3 *947:A1 *947:A3 1.18232e-06
4 *947:A1 *303:12 4.51285e-05
5 *947:A1 *644:124 2.0679e-05
6 *943:A2 *947:A1 6.84316e-05
7 *181:73 *947:A1 1.07393e-05
*RES
1 *943:ZN *947:A1 37.2143 
*END

*D_NET *300 0.000418976
*CONN
*I *947:A2 I *D NAND4_X1
*I *944:ZN O *D AOI22_X1
*CAP
1 *947:A2 7.78969e-05
2 *944:ZN 7.78969e-05
3 *947:A2 *847:A 3.84995e-05
4 *947:A2 *847:B 9.20479e-05
5 *947:A2 *944:A1 4.12796e-06
6 *947:A2 *947:A3 5.51477e-05
7 *947:A2 *949:B2 2.47059e-05
8 *947:A2 *606:87 4.16464e-05
9 *947:A2 *625:43 7.00661e-06
*RES
1 *944:ZN *947:A2 33.8214 
*END

*D_NET *301 0.000508456
*CONN
*I *947:A3 I *D NAND4_X1
*I *945:ZN O *D AOI22_X1
*CAP
1 *947:A3 0.000129778
2 *945:ZN 0.000129778
3 *947:A3 *847:B 9.20479e-05
4 *947:A3 *944:B2 6.89712e-05
5 *947:A3 *303:12 8.43215e-07
6 *947:A3 *535:8 9.57492e-07
7 *947:A3 *606:87 3.98918e-06
8 *947:A3 *644:124 0
9 *947:A1 *947:A3 1.18232e-06
10 *947:A2 *947:A3 5.51477e-05
11 *1007:D *947:A3 2.57598e-05
*RES
1 *945:ZN *947:A3 38.6429 
*END

*D_NET *302 0.00101685
*CONN
*I *947:A4 I *D NAND4_X1
*I *946:ZN O *D AOI22_X1
*CAP
1 *947:A4 0
2 *946:ZN 0.000354818
3 *302:14 0.000354818
4 *302:14 *810:B 2.88159e-06
5 *302:14 *868:A 0
6 *302:14 *946:A1 5.35689e-05
7 *302:14 *946:B2 4.71576e-05
8 *302:14 *949:A1 1.60494e-06
9 *302:14 *949:B2 1.20756e-05
10 *302:14 *983:CK 4.88571e-05
11 *302:14 *1045:CK 2.60964e-05
12 *302:14 *527:10 1.28122e-06
13 *302:14 *535:8 2.08416e-06
14 *302:14 *604:88 6.07779e-06
15 *302:14 *606:48 0
16 *302:14 *606:58 0
17 *302:14 *628:88 0
18 *302:14 *644:8 2.22688e-05
19 *302:14 *644:15 0
20 *302:14 *644:151 2.71958e-06
21 *946:B1 *302:14 2.75346e-06
22 *983:D *302:14 3.80063e-06
23 *1013:D *302:14 3.10691e-05
24 *181:54 *302:14 3.74933e-05
25 *181:73 *302:14 5.42579e-06
*RES
1 *946:ZN *302:14 48.4643 
2 *302:14 *947:A4 5 
*END

*D_NET *303 0.000862729
*CONN
*I *953:A2 I *D NOR3_X1
*I *947:ZN O *D NAND4_X1
*CAP
1 *953:A2 2.53686e-05
2 *947:ZN 0.00025299
3 *303:12 0.000278359
4 *953:A2 *953:A3 4.93921e-05
5 *953:A2 *309:22 1.87637e-06
6 *303:12 *775:A 0
7 *303:12 *775:B 5.54369e-05
8 *303:12 *812:A 6.8173e-05
9 *303:12 *943:A1 2.35942e-05
10 *303:12 *535:8 0
11 *831:S *303:12 0
12 *947:A1 *303:12 4.51285e-05
13 *947:A3 *303:12 8.43215e-07
14 *953:A1 *953:A2 4.44177e-05
15 *1023:D *303:12 1.00267e-05
16 *1047:D *303:12 5.52692e-06
17 *181:73 *303:12 1.59582e-06
*RES
1 *947:ZN *303:12 45.6786 
2 *303:12 *953:A2 9.75 
*END

*D_NET *304 0.000280891
*CONN
*I *952:A1 I *D NAND4_X1
*I *948:ZN O *D AOI22_X1
*CAP
1 *952:A1 7.65202e-05
2 *948:ZN 7.65202e-05
3 *952:A1 *948:A1 1.36837e-05
4 *952:A1 *948:B2 1.59384e-05
5 *952:A1 *952:A2 6.40063e-06
6 *952:A1 *952:A4 9.57492e-07
7 *952:A1 *625:43 5.35131e-05
8 *952:A1 *645:65 4.36658e-06
9 *952:A1 *645:69 2.75346e-06
10 *929:A2 *952:A1 3.02372e-05
*RES
1 *948:ZN *952:A1 30.9643 
*END

*D_NET *305 0.000763271
*CONN
*I *952:A2 I *D NAND4_X1
*I *949:ZN O *D AOI22_X1
*CAP
1 *952:A2 0.000126236
2 *949:ZN 0.000126236
3 *952:A2 *819:A 1.65298e-05
4 *952:A2 *948:B2 1.30494e-05
5 *952:A2 *949:B2 2.97287e-06
6 *952:A2 *952:A4 6.96242e-06
7 *952:A2 *616:68 2.20018e-06
8 *952:A2 *625:43 0.000361236
9 *952:A2 *628:88 1.90842e-05
10 *949:A2 *952:A2 1.4478e-06
11 *952:A1 *952:A2 6.40063e-06
12 *1039:D *952:A2 7.98429e-05
13 *181:73 *952:A2 1.07428e-06
*RES
1 *949:ZN *952:A2 42.25 
*END

*D_NET *306 0.000656918
*CONN
*I *952:A3 I *D NAND4_X1
*I *950:ZN O *D AOI22_X1
*CAP
1 *952:A3 0.000258175
2 *950:ZN 0.000258175
3 *952:A3 *763:A 1.34605e-05
4 *952:A3 *919:B2 0
5 *952:A3 *948:A1 8.2465e-06
6 *952:A3 *309:22 1.90335e-05
7 *952:A3 *606:174 0
8 *952:A3 *625:43 1.87885e-05
9 *952:A3 *645:56 0
10 *952:A3 *645:65 4.26436e-05
11 *775:S *952:A3 7.82257e-06
12 *923:A4 *952:A3 0
13 *929:A3 *952:A3 8.00646e-06
14 *199:48 *952:A3 2.25658e-05
15 *223:83 *952:A3 0
*RES
1 *950:ZN *952:A3 47.75 
*END

*D_NET *307 0.000530097
*CONN
*I *952:A4 I *D NAND4_X1
*I *951:ZN O *D AOI22_X1
*CAP
1 *952:A4 0.000113704
2 *951:ZN 0.000113704
3 *952:A4 *763:A 5.52692e-06
4 *952:A4 *1039:CK 9.28375e-05
5 *952:A4 *567:8 6.92051e-06
6 *952:A4 *606:145 0
7 *952:A4 *606:166 1.50966e-05
8 *952:A4 *606:174 1.74934e-05
9 *952:A4 *645:10 1.22051e-05
10 *952:A4 *645:27 7.19036e-06
11 *952:A4 *645:56 1.54284e-05
12 *952:A4 *645:65 0
13 *763:S *952:A4 1.90208e-06
14 *952:A1 *952:A4 9.57492e-07
15 *952:A2 *952:A4 6.96242e-06
16 *1103:D *952:A4 1.45851e-05
17 *226:110 *952:A4 0.000105584
*RES
1 *951:ZN *952:A4 36.9286 
*END

*D_NET *308 0.000395965
*CONN
*I *953:A3 I *D NOR3_X1
*I *952:ZN O *D NAND4_X1
*CAP
1 *953:A3 0.000142667
2 *952:ZN 0.000142667
3 *953:A3 *775:A 0
4 *953:A3 *775:B 1.39839e-06
5 *953:A3 *943:A1 0
6 *953:A3 *309:22 3.37678e-05
7 *953:A3 *606:145 0
8 *953:A3 *645:65 0
9 *953:A3 *645:69 1.43238e-06
10 *775:S *953:A3 0
11 *953:A2 *953:A3 4.93921e-05
12 *1085:D *953:A3 2.46406e-05
*RES
1 *952:ZN *953:A3 27.3571 
*END

*D_NET *309 0.000849307
*CONN
*I *954:A I *D AOI21_X1
*I *953:ZN O *D NOR3_X1
*CAP
1 *954:A 0
2 *953:ZN 0.000192086
3 *309:22 0.000192086
4 *309:22 *604:19 0
5 *309:22 *604:36 4.21607e-06
6 *309:22 *625:43 1.11219e-05
7 *309:22 *645:69 4.88546e-05
8 *309:22 *645:80 4.69953e-05
9 *775:S *309:22 0.000145647
10 *923:A4 *309:22 0
11 *930:A *309:22 6.48741e-05
12 *952:A3 *309:22 1.90335e-05
13 *953:A1 *309:22 3.35822e-05
14 *953:A2 *309:22 1.87637e-06
15 *953:A3 *309:22 3.37678e-05
16 *954:B1 *309:22 8.43215e-07
17 *954:B2 *309:22 4.31223e-05
18 *965:D *309:22 8.43215e-07
19 *1021:D *309:22 5.91521e-06
20 *184:158 *309:22 4.44127e-06
*RES
1 *953:ZN *309:22 45.8214 
2 *309:22 *954:A 5 
*END

*D_NET *456 0.00377266
*CONN
*P clk I
*I *1182:A I *D BUF_X4
*CAP
1 clk 0.000938982
2 *1182:A 0
3 *456:34 2.92679e-06
4 *456:28 0.000944968
5 *456:24 0.00188102
6 *456:24 *601:7 0
7 *456:34 *623:10 2.38218e-06
8 *233:27 *456:34 2.38218e-06
*RES
1 clk *456:24 34.6343 
2 *456:24 *456:28 49.77 
3 *456:28 *456:34 8.53571 
4 *456:34 *1182:A 10 
*END

*D_NET *457 0.000532375
*CONN
*I *862:A I *D MUX2_X1
*I *881:A1 I *D AOI22_X1
*I *977:Q O *D DFF_X1
*CAP
1 *862:A 0
2 *881:A1 2.25624e-05
3 *977:Q 7.67966e-05
4 *457:10 9.9359e-05
5 *881:A1 *600:105 2.48069e-05
6 *881:A1 *621:42 3.09143e-06
7 *881:A1 *623:10 2.72171e-06
8 *457:10 *862:B 7.28854e-06
9 *457:10 *600:105 6.32202e-06
10 *881:A2 *881:A1 5.51848e-05
11 *881:A2 *457:10 0.000136789
12 *883:A3 *881:A1 8.26038e-06
13 *209:21 *457:10 4.4596e-05
14 *212:65 *457:10 4.4596e-05
*RES
1 *977:Q *457:10 21.9643 
2 *457:10 *881:A1 14.3929 
3 *457:10 *862:A 10 
*END

*D_NET *458 0.000544723
*CONN
*I *894:B2 I *D AOI22_X1
*I *863:A I *D MUX2_X1
*I *978:Q O *D DFF_X1
*CAP
1 *894:B2 5.88776e-05
2 *863:A 0.000118607
3 *978:Q 4.54432e-05
4 *458:8 0.000222928
5 *894:B2 *894:A2 0
6 *894:B2 *627:26 2.30024e-06
7 *458:8 *894:A2 0
8 *458:8 *1026:CK 1.83288e-05
9 *821:S *894:B2 0
10 *894:B1 *894:B2 8.7256e-06
11 *1026:D *894:B2 0
12 *1058:D *894:B2 0
13 *214:14 *863:A 6.95135e-05
*RES
1 *978:Q *458:8 10.1786 
2 *458:8 *863:A 26.7857 
3 *458:8 *894:B2 10.6786 
*END

*D_NET *459 0.000606887
*CONN
*I *903:B2 I *D AOI222_X1
*I *864:A I *D MUX2_X1
*I *979:Q O *D DFF_X1
*CAP
1 *903:B2 5.21627e-05
2 *864:A 0
3 *979:Q 7.71725e-05
4 *459:12 0.000129335
5 *903:B2 *979:CK 1.97015e-05
6 *459:12 *979:CK 4.8057e-06
7 *459:12 *617:8 3.29417e-05
8 *864:S *459:12 7.72792e-06
9 *903:B1 *903:B2 3.47339e-05
10 *938:A2 *903:B2 9.55318e-06
11 *206:18 *903:B2 4.32319e-05
12 *223:14 *459:12 0.000157561
13 *223:35 *903:B2 3.65856e-06
14 *223:35 *459:12 1.43238e-06
15 *228:14 *459:12 3.28688e-05
*RES
1 *979:Q *459:12 27.6429 
2 *459:12 *864:A 5 
3 *459:12 *903:B2 22.2857 
*END

*D_NET *460 0.000706006
*CONN
*I *865:A I *D MUX2_X1
*I *915:B2 I *D AOI22_X1
*I *980:Q O *D DFF_X1
*CAP
1 *865:A 7.32525e-05
2 *915:B2 7.41854e-05
3 *980:Q 2.57458e-05
4 *460:6 0.000173184
5 *865:A *865:S 8.26038e-06
6 *865:A *633:215 6.7537e-05
7 *915:B2 *823:A 5.71303e-06
8 *915:B2 *823:B 0
9 *915:B2 *631:40 9.57492e-07
10 *915:B2 *631:55 2.46765e-05
11 *460:6 *631:55 3.21555e-05
12 *823:S *460:6 0
13 *1028:D *460:6 5.59226e-06
14 *178:70 *865:A 0.00020017
15 *206:42 *865:A 1.87637e-06
16 *209:21 *865:A 1.26998e-05
17 *212:18 *915:B2 0
*RES
1 *980:Q *460:6 8.25 
2 *460:6 *915:B2 13.2857 
3 *460:6 *865:A 27.3571 
*END

*D_NET *461 0.000588449
*CONN
*I *924:A1 I *D AOI22_X1
*I *866:A I *D MUX2_X1
*I *981:Q O *D DFF_X1
*CAP
1 *924:A1 5.1124e-05
2 *866:A 5.97824e-05
3 *981:Q 5.20301e-05
4 *461:10 0.000162936
5 *866:A *866:S 2.75346e-06
6 *866:A *626:76 0
7 *866:A *642:72 2.43548e-06
8 *924:A1 *924:B1 3.09411e-06
9 *924:A1 *924:B2 8.09419e-06
10 *924:A1 *619:105 0
11 *924:A1 *626:76 0
12 *461:10 *854:A 1.47939e-05
13 *924:A2 *866:A 9.10538e-05
14 *924:A2 *924:A1 7.0174e-05
15 *981:D *461:10 2.21606e-05
16 *214:12 *866:A 2.85421e-05
17 *214:14 *461:10 1.9474e-05
*RES
1 *981:Q *461:10 22.0357 
2 *461:10 *866:A 14.25 
3 *461:10 *924:A1 12.25 
*END

*D_NET *462 0.000993262
*CONN
*I *937:B2 I *D AOI22_X1
*I *867:A I *D MUX2_X1
*I *982:Q O *D DFF_X1
*CAP
1 *937:B2 0.000105937
2 *867:A 6.60694e-05
3 *982:Q 7.85113e-05
4 *462:6 0.000250518
5 *867:A *790:A 9.36292e-05
6 *867:A *898:A1 0
7 *867:A *1070:CK 1.01993e-05
8 *867:A *634:50 6.32202e-06
9 *867:A *634:54 7.72792e-06
10 *867:A *634:78 5.28399e-05
11 *937:B2 *790:A 6.39012e-06
12 *937:B2 *898:C2 6.76399e-05
13 *937:B2 *936:B1 4.6837e-06
14 *937:B2 *936:B2 3.90286e-05
15 *937:B2 *937:A1 1.6581e-06
16 *937:B2 *938:B2 6.49633e-05
17 *937:B2 *605:42 4.32144e-07
18 *937:B2 *605:53 2.56243e-06
19 *937:B2 *617:18 6.70982e-05
20 *462:6 *804:A 8.31194e-06
21 *462:6 *982:CK 6.07323e-06
22 *462:6 *605:42 8.194e-06
23 *797:S *462:6 0
24 *227:30 *937:B2 2.08328e-06
25 *228:18 *867:A 4.23899e-05
*RES
1 *982:Q *462:6 13.25 
2 *462:6 *867:A 26.8571 
3 *462:6 *937:B2 29.6429 
*END

*D_NET *463 0.000721914
*CONN
*I *946:A1 I *D AOI22_X1
*I *868:A I *D MUX2_X1
*I *983:Q O *D DFF_X1
*CAP
1 *946:A1 7.15331e-05
2 *868:A 9.50483e-05
3 *983:Q 4.79235e-05
4 *463:8 0.000214505
5 *868:A *854:A 2.00032e-05
6 *868:A *868:S 5.40099e-05
7 *868:A *527:10 1.74984e-05
8 *868:A *619:105 0
9 *946:A1 *983:CK 4.88571e-05
10 *946:A1 *527:10 8.9566e-06
11 *946:A1 *628:71 0
12 *463:8 *527:10 1.07633e-05
13 *946:B1 *946:A1 2.43548e-06
14 *983:D *868:A 5.8848e-06
15 *205:75 *463:8 1.22599e-05
16 *205:81 *946:A1 5.86674e-05
17 *214:14 *868:A 0
18 *227:106 *463:8 0
19 *302:14 *868:A 0
20 *302:14 *946:A1 5.35689e-05
*RES
1 *983:Q *463:8 15 
2 *463:8 *868:A 21.4286 
3 *463:8 *946:A1 21.9286 
*END

*D_NET *464 0.000798692
*CONN
*I *744:A I *D MUX2_X1
*I *713:A1 I *D AOI22_X1
*I *984:Q O *D DFF_X1
*CAP
1 *744:A 1.13223e-05
2 *713:A1 6.35614e-05
3 *984:Q 8.04983e-05
4 *464:10 0.000155382
5 *713:A1 *716:A1 6.38328e-07
6 *713:A1 *719:B1 0.000132529
7 *713:A1 *617:62 6.56007e-06
8 *744:A *744:B 2.08416e-06
9 *744:A *744:S 2.39679e-06
10 *744:A *642:72 1.86809e-06
11 *464:10 *719:B1 0.000119735
12 *464:10 *719:B2 1.69265e-05
13 *464:10 *748:A 9.89864e-06
14 *464:10 *619:105 0
15 *713:B1 *713:A1 1.23567e-05
16 *720:A2 *713:A1 2.61032e-05
17 *720:A3 *713:A1 4.18149e-05
18 *720:A4 *713:A1 3.41288e-05
19 *720:A4 *464:10 4.5774e-05
20 *909:B1 *713:A1 3.24963e-05
21 *214:12 *713:A1 2.61827e-06
*RES
1 *984:Q *464:10 22.2857 
2 *464:10 *713:A1 22.2857 
3 *464:10 *744:A 11.25 
*END

*D_NET *465 0.000480099
*CONN
*I *874:A1 I *D AOI22_X1
*I *792:A I *D MUX2_X1
*I *1057:Q O *D DFF_X1
*CAP
1 *874:A1 5.48013e-05
2 *792:A 0
3 *1057:Q 7.97797e-05
4 *465:12 0.000134581
5 *874:A1 *874:B1 4.14698e-05
6 *874:A1 *874:B2 1.60267e-05
7 *874:A1 *600:170 3.09411e-06
8 *874:A1 *633:341 9.17028e-07
9 *465:12 *874:B1 2.35379e-05
10 *465:12 *874:B2 2.25089e-06
11 *465:12 *978:CK 1.45945e-05
12 *465:12 *1057:CK 1.11168e-06
13 *465:12 *497:14 4.08958e-05
14 *465:12 *633:341 0
15 *792:S *465:12 3.74891e-05
16 *878:A4 *874:A1 1.16703e-05
17 *884:A3 *465:12 1.21927e-05
18 *1057:D *465:12 5.68655e-06
*RES
1 *1057:Q *465:12 24.9286 
2 *465:12 *792:A 5 
3 *465:12 *874:A1 21.7857 
*END

*D_NET *466 0.000575431
*CONN
*I *888:B2 I *D AOI22_X1
*I *793:A I *D MUX2_X1
*I *1058:Q O *D DFF_X1
*CAP
1 *888:B2 3.67811e-05
2 *793:A 7.25329e-05
3 *1058:Q 6.30933e-05
4 *466:10 0.000172407
5 *793:A *978:CK 5.42208e-05
6 *793:A *601:71 1.86809e-06
7 *793:A *601:77 7.16188e-07
8 *793:A *649:27 1.2203e-05
9 *888:B2 *1058:CK 6.48216e-07
10 *888:B2 *649:44 4.92138e-05
11 *466:10 *888:A1 2.72417e-06
12 *466:10 *1050:CK 1.56073e-06
13 *466:10 *601:71 6.84237e-06
14 *466:10 *649:25 3.21609e-05
15 *466:10 *649:27 1.53357e-05
16 *1058:D *793:A 4.79202e-06
17 *1058:D *888:B2 2.39679e-06
18 *190:165 *793:A 0
19 *190:165 *888:B2 1.28122e-06
20 *199:33 *793:A 0
21 *199:116 *888:B2 4.38852e-05
22 *226:82 *466:10 7.66675e-07
*RES
1 *1058:Q *466:10 18.4643 
2 *466:10 *793:A 18.3929 
3 *466:10 *888:B2 15.75 
*END

*D_NET *467 0.000504718
*CONN
*I *794:A I *D MUX2_X1
*I *898:B2 I *D AOI222_X1
*I *1059:Q O *D DFF_X1
*CAP
1 *794:A 0.000157734
2 *898:B2 4.91321e-05
3 *1059:Q 0
4 *467:4 0.000206866
5 *794:A *602:21 8.56032e-06
6 *794:A *634:39 5.94783e-07
7 *898:B2 *898:C2 8.9029e-06
8 *898:B2 *1067:CK 1.87392e-05
9 *898:B2 *634:39 1.85755e-05
10 *898:B2 *634:50 2.65798e-06
11 *794:S *794:A 0
12 *898:B1 *898:B2 1.6614e-05
13 *227:30 *794:A 1.63402e-05
14 *227:30 *898:B2 0
*RES
1 *1059:Q *467:4 5 
2 *467:4 *898:B2 21.75 
3 *467:4 *794:A 31.0357 
*END

*D_NET *468 0.000715962
*CONN
*I *908:A1 I *D AOI22_X1
*I *795:A I *D MUX2_X1
*I *1060:Q O *D DFF_X1
*CAP
1 *908:A1 8.90709e-05
2 *795:A 0.000109816
3 *1060:Q 0
4 *468:4 0.000198887
5 *795:A *795:B 2.14856e-06
6 *795:A *908:B2 9.77674e-06
7 *795:A *603:27 7.65279e-06
8 *795:A *636:26 2.88159e-06
9 *908:A1 *908:B1 1.05397e-05
10 *908:A1 *908:B2 2.68122e-05
11 *908:A1 *500:26 2.79489e-05
12 *908:A1 *603:21 2.30029e-05
13 *908:A1 *624:10 3.87405e-06
14 *908:A1 *626:33 4.40256e-06
15 *908:A1 *626:51 5.67012e-05
16 *795:S *795:A 7.72537e-06
17 *908:A2 *908:A1 5.41497e-05
18 *910:A2 *908:A1 1.07471e-05
19 *911:A2 *908:A1 6.85467e-06
20 *988:D *795:A 6.0887e-06
21 *1060:D *795:A 3.33429e-05
22 *225:97 *908:A1 2.35379e-05
*RES
1 *1060:Q *468:4 5 
2 *468:4 *795:A 26.9643 
3 *468:4 *908:A1 27.6786 
*END

*D_NET *469 0.000426633
*CONN
*I *926:A1 I *D AOI22_X1
*I *796:A I *D MUX2_X1
*I *1061:Q O *D DFF_X1
*CAP
1 *926:A1 4.43838e-05
2 *796:A 7.02962e-05
3 *1061:Q 0
4 *469:4 0.00011468
5 *796:A *796:B 6.70982e-05
6 *796:A *604:107 1.72426e-05
7 *796:A *604:122 3.90891e-05
8 *926:A1 *926:B2 2.99872e-05
9 *926:A1 *604:101 0
10 *926:A1 *604:107 0
11 *926:A1 *604:122 5.50692e-06
12 *784:S *796:A 1.5896e-05
13 *784:S *926:A1 3.09143e-06
14 *1061:D *796:A 1.23191e-05
15 *227:106 *796:A 7.043e-06
*RES
1 *1061:Q *469:4 5 
2 *469:4 *796:A 25.1071 
3 *469:4 *926:A1 20.0714 
*END

*D_NET *470 0.001008
*CONN
*I *938:B2 I *D AOI22_X1
*I *797:A I *D MUX2_X1
*I *1062:Q O *D DFF_X1
*CAP
1 *938:B2 0.000123056
2 *797:A 5.46321e-05
3 *1062:Q 4.40465e-05
4 *470:10 0.000221735
5 *797:A *853:S 0
6 *797:A *937:A1 5.41924e-05
7 *797:A *605:21 8.43215e-07
8 *797:A *635:35 0
9 *938:B2 *790:A 2.75346e-06
10 *938:B2 *936:A1 2.35328e-05
11 *938:B2 *936:A2 1.60274e-05
12 *938:B2 *936:B1 2.94435e-05
13 *938:B2 *936:B2 1.68643e-06
14 *938:B2 *937:A1 2.31688e-05
15 *938:B2 *605:53 0
16 *938:B2 *617:18 6.76378e-05
17 *470:10 *617:8 1.62177e-05
18 *797:S *797:A 4.12459e-06
19 *901:A2 *938:B2 7.47756e-06
20 *937:B2 *938:B2 6.49633e-05
21 *938:A2 *938:B2 1.27666e-06
22 *938:B1 *938:B2 2.75346e-06
23 *940:A3 *938:B2 0
24 *1062:D *797:A 1.93513e-05
25 *190:30 *938:B2 6.66237e-05
26 *227:18 *470:10 9.77349e-05
27 *228:18 *470:10 6.47235e-05
*RES
1 *1062:Q *470:10 24.0714 
2 *470:10 *797:A 12.1786 
3 *470:10 *938:B2 33.1429 
*END

*D_NET *471 0.000531873
*CONN
*I *950:B2 I *D AOI22_X1
*I *798:A I *D MUX2_X1
*I *1063:Q O *D DFF_X1
*CAP
1 *950:B2 6.92332e-05
2 *798:A 0.000122065
3 *1063:Q 0
4 *471:4 0.000191299
5 *798:A *826:A 3.6898e-05
6 *798:A *950:A1 4.16737e-06
7 *798:A *1031:CK 8.43215e-07
8 *950:B2 *950:A1 1.45059e-05
9 *950:B2 *1063:CK 0
10 *950:B2 *606:174 6.38328e-07
11 *199:48 *950:B2 2.75346e-06
12 *214:14 *798:A 8.73338e-05
13 *227:91 *798:A 2.13573e-06
*RES
1 *1063:Q *471:4 5 
2 *471:4 *798:A 31.2143 
3 *471:4 *950:B2 12.6786 
*END

*D_NET *472 0.000573276
*CONN
*I *706:B2 I *D AOI22_X1
*I *742:A I *D MUX2_X1
*I *1064:Q O *D DFF_X1
*CAP
1 *706:B2 8.21296e-05
2 *742:A 7.88885e-05
3 *1064:Q 1.56154e-05
4 *472:8 0.000176633
5 *706:B2 *706:A1 1.18232e-06
6 *706:B2 *627:16 4.9309e-05
7 *706:B2 *631:55 1.50144e-05
8 *742:A *742:B 3.83799e-05
9 *742:A *623:10 3.84101e-05
10 *472:8 *623:10 1.53357e-05
11 *706:B1 *706:B2 2.39679e-06
12 *707:A4 *706:B2 1.15841e-05
13 *823:S *742:A 1.50729e-05
14 *881:A2 *742:A 3.08164e-05
15 *1064:D *742:A 2.5073e-06
*RES
1 *1064:Q *472:8 12.2857 
2 *472:8 *742:A 20.1071 
3 *472:8 *706:B2 21.25 
*END

*D_NET *473 0.000755586
*CONN
*I *876:B2 I *D AOI22_X1
*I *785:A I *D MUX2_X1
*I *1065:Q O *D DFF_X1
*CAP
1 *876:B2 1.95493e-05
2 *785:A 7.93364e-05
3 *1065:Q 0
4 *473:6 9.88857e-05
5 *785:A *799:A 2.87087e-05
6 *785:A *599:238 3.01743e-06
7 *785:A *600:170 1.91644e-05
8 *785:A *600:185 7.35912e-06
9 *876:B2 *599:238 6.6684e-06
10 *785:S *785:A 0.000274833
11 *786:S *785:A 2.96955e-05
12 *875:A2 *785:A 0
13 *876:B1 *876:B2 2.94881e-06
14 *893:B1 *785:A 4.29819e-05
15 *893:B1 *876:B2 3.85464e-05
16 *895:A4 *876:B2 2.52965e-06
17 *1065:D *785:A 9.41709e-05
18 *181:119 *876:B2 7.19036e-06
19 *188:106 *785:A 0
*RES
1 *1065:Q *473:6 10 
2 *473:6 *785:A 27.2857 
3 *473:6 *876:B2 13.0357 
*END

*D_NET *474 0.000573432
*CONN
*I *786:A I *D MUX2_X1
*I *893:B2 I *D AOI22_X1
*I *1066:Q O *D DFF_X1
*CAP
1 *786:A 4.4451e-05
2 *893:B2 6.21352e-05
3 *1066:Q 7.38578e-05
4 *474:8 0.000180444
5 *786:A *828:A 0
6 *474:8 *1066:CK 6.76378e-05
7 *474:8 *546:8 0
8 *786:S *786:A 6.11168e-05
9 *786:S *893:B2 1.0276e-05
10 *806:S *893:B2 0
11 *893:B1 *893:B2 8.43215e-07
12 *1018:D *786:A 0
13 *1018:D *474:8 0
14 *1066:D *786:A 8.62472e-06
15 *253:12 *893:B2 1.55671e-05
16 *253:12 *474:8 4.8478e-05
*RES
1 *1066:Q *474:8 20.4286 
2 *474:8 *893:B2 16.5357 
3 *474:8 *786:A 16.25 
*END

*D_NET *475 0.000436158
*CONN
*I *787:A I *D MUX2_X1
*I *898:C1 I *D AOI222_X1
*I *1067:Q O *D DFF_X1
*CAP
1 *787:A 5.86102e-05
2 *898:C1 6.96868e-05
3 *1067:Q 0
4 *475:4 0.000128297
5 *787:A *787:S 7.00661e-06
6 *787:A *901:B2 1.89413e-05
7 *787:A *602:47 4.24402e-05
8 *787:A *617:24 2.17266e-05
9 *898:C1 *898:C2 1.11194e-05
10 *898:C1 *1067:CK 0
11 *898:A2 *787:A 1.78013e-05
12 *898:A2 *898:C1 1.70037e-05
13 *898:B1 *898:C1 7.72792e-06
14 *1067:D *787:A 7.36912e-06
15 *1067:D *898:C1 1.32348e-05
16 *258:24 *787:A 1.51932e-05
*RES
1 *1067:Q *475:4 5 
2 *475:4 *898:C1 13.8571 
3 *475:4 *787:A 23.75 
*END

*D_NET *476 0.000518407
*CONN
*I *913:B2 I *D AOI22_X1
*I *788:A I *D MUX2_X1
*I *1068:Q O *D DFF_X1
*CAP
1 *913:B2 7.77231e-06
2 *788:A 7.25976e-05
3 *1068:Q 2.95722e-05
4 *476:8 0.000109942
5 *916:A2 *476:8 5.40219e-06
6 *916:A3 *788:A 6.28922e-06
7 *916:A3 *476:8 2.73619e-05
8 *193:20 *788:A 2.88568e-05
9 *193:20 *913:B2 1.19994e-05
10 *193:32 *788:A 2.96755e-05
11 *195:44 *476:8 1.15721e-05
12 *196:12 *788:A 5.39364e-05
13 *196:59 *788:A 8.48059e-05
14 *196:76 *788:A 7.95923e-06
15 *202:27 *476:8 8.43215e-07
16 *202:48 *913:B2 1.16229e-06
17 *202:48 *476:8 8.99555e-06
18 *216:126 *788:A 1.96635e-05
*RES
1 *1068:Q *476:8 14.25 
2 *476:8 *788:A 20.4286 
3 *476:8 *913:B2 10.9286 
*END

*D_NET *477 0.00057861
*CONN
*I *927:A1 I *D AOI22_X1
*I *789:A I *D MUX2_X1
*I *1069:Q O *D DFF_X1
*CAP
1 *927:A1 7.90915e-05
2 *789:A 2.60821e-05
3 *1069:Q 4.98233e-05
4 *477:10 0.000154997
5 *789:A *789:S 8.06325e-05
6 *789:A *606:87 0
7 *789:A *625:43 8.00263e-06
8 *927:A1 *791:S 7.19036e-06
9 *927:A1 *927:B2 4.32144e-07
10 *927:A1 *944:B1 2.16072e-07
11 *927:A1 *945:A2 4.98619e-05
12 *927:A1 *1069:CK 6.07323e-06
13 *927:A1 *624:71 2.39679e-06
14 *477:10 *789:S 1.2203e-05
15 *477:10 *944:A2 8.30669e-06
16 *477:10 *944:B1 4.38801e-05
17 *477:10 *616:68 4.18985e-05
18 *477:10 *625:43 7.52209e-06
19 *784:S *927:A1 0
20 *1069:D *927:A1 0
*RES
1 *1069:Q *477:10 17.2143 
2 *477:10 *789:A 14.3214 
3 *477:10 *927:A1 19.75 
*END

*D_NET *478 0.0006227
*CONN
*I *936:A1 I *D AOI22_X1
*I *790:A I *D MUX2_X1
*I *1070:Q O *D DFF_X1
*CAP
1 *936:A1 4.13901e-05
2 *790:A 6.83488e-05
3 *1070:Q 0
4 *478:4 0.000109739
5 *790:A *1070:CK 8.75903e-06
6 *936:A1 *605:53 0
7 *936:A1 *618:16 6.46654e-06
8 *797:S *790:A 2.55787e-06
9 *867:A *790:A 9.36292e-05
10 *901:A2 *936:A1 7.82575e-05
11 *937:B2 *790:A 6.39012e-06
12 *938:B2 *790:A 2.75346e-06
13 *938:B2 *936:A1 2.35328e-05
14 *940:A2 *936:A1 2.99872e-05
15 *227:30 *790:A 1.98589e-05
16 *228:18 *790:A 0.00013103
*RES
1 *1070:Q *478:4 5 
2 *478:4 *790:A 26.2857 
3 *478:4 *936:A1 21.5714 
*END

*D_NET *479 0.000770293
*CONN
*I *944:A1 I *D AOI22_X1
*I *791:A I *D MUX2_X1
*I *1071:Q O *D DFF_X1
*CAP
1 *944:A1 0.000166554
2 *791:A 3.49392e-05
3 *1071:Q 6.0949e-05
4 *479:10 0.000262442
5 *791:A *784:B 9.52324e-06
6 *791:A *606:15 1.11357e-05
7 *944:A1 *847:S 6.65423e-06
8 *944:A1 *944:A2 1.19839e-05
9 *944:A1 *944:B1 5.34233e-06
10 *944:A1 *606:36 2.70013e-05
11 *944:A1 *606:38 1.19839e-05
12 *944:A1 *606:48 7.19036e-06
13 *944:A1 *606:87 2.89018e-05
14 *944:A1 *625:43 4.21902e-05
15 *944:A1 *644:15 0
16 *944:A1 *644:28 1.07393e-05
17 *479:10 *812:A 0
18 *479:10 *606:15 1.49198e-05
19 *947:A2 *944:A1 4.12796e-06
20 *1007:D *944:A1 3.90891e-05
21 *1071:D *791:A 1.46266e-05
22 *181:73 *479:10 0
*RES
1 *1071:Q *479:10 18.8929 
2 *479:10 *791:A 15 
3 *479:10 *944:A1 40.7857 
*END

*D_NET *480 0.000589562
*CONN
*I *710:A1 I *D AOI22_X1
*I *756:A I *D MUX2_X1
*I *1072:Q O *D DFF_X1
*CAP
1 *710:A1 8.24396e-05
2 *756:A 4.95683e-05
3 *1072:Q 4.82047e-05
4 *480:10 0.000180213
5 *710:A1 *710:B2 1.47674e-05
6 *710:A1 *1008:CK 2.54506e-05
7 *710:A1 *628:71 7.98366e-06
8 *756:A *756:S 6.48216e-07
9 *756:A *628:71 1.60038e-06
10 *480:10 *536:8 0
11 *480:10 *632:56 2.38139e-06
12 *480:10 *643:45 0.000106372
13 *1072:D *710:A1 2.43548e-06
14 *1072:D *756:A 1.1025e-05
15 *1072:D *480:10 3.82563e-06
16 *191:80 *710:A1 7.91353e-06
17 *191:80 *756:A 6.82202e-07
18 *227:79 *756:A 1.51496e-05
19 *227:79 *480:10 2.89018e-05
*RES
1 *1072:Q *480:10 22.0357 
2 *480:10 *756:A 10.8571 
3 *480:10 *710:A1 15.25 
*END

*D_NET *481 0.000800765
*CONN
*I *877:B2 I *D AOI22_X1
*I *778:A I *D MUX2_X1
*I *1073:Q O *D DFF_X1
*CAP
1 *877:B2 9.0356e-05
2 *778:A 7.98735e-05
3 *1073:Q 0
4 *481:6 0.000170229
5 *778:A *600:13 3.33445e-06
6 *778:A *600:19 2.16072e-07
7 *877:B2 *648:8 8.43215e-07
8 *877:B2 *648:94 1.38361e-05
9 *877:B2 *648:105 5.86754e-06
10 *779:S *778:A 6.54953e-05
11 *892:B1 *877:B2 1.31801e-05
12 *1002:D *778:A 0
13 *1002:D *877:B2 0
14 *1073:D *778:A 6.4556e-06
15 *184:146 *778:A 0.000183802
16 *184:146 *877:B2 0.000164522
17 *209:31 *877:B2 2.75346e-06
*RES
1 *1073:Q *481:6 10 
2 *481:6 *778:A 23.5 
3 *481:6 *877:B2 22.8214 
*END

*D_NET *482 0.000495382
*CONN
*I *892:B2 I *D AOI22_X1
*I *779:A I *D MUX2_X1
*I *1074:Q O *D DFF_X1
*CAP
1 *892:B2 2.66379e-05
2 *779:A 0.000129457
3 *1074:Q 0
4 *482:4 0.000156095
5 *779:A rd_data[4] 0
6 *779:A rd_data[6] 1.88334e-06
7 *779:A *589:27 0
8 *779:A *601:23 0.000171847
9 *779:A *606:9 6.70842e-06
10 *892:B1 *892:B2 2.75346e-06
11 *1001:D *892:B2 0
*RES
1 *1074:Q *482:4 5 
2 *482:4 *779:A 31.3571 
3 *482:4 *892:B2 8.03572 
*END

*D_NET *483 0.000420045
*CONN
*I *904:C2 I *D AOI222_X1
*I *780:A I *D MUX2_X1
*I *1075:Q O *D DFF_X1
*CAP
1 *904:C2 3.79134e-05
2 *780:A 9.10057e-05
3 *1075:Q 0
4 *483:6 0.000128919
5 *780:A *931:A1 1.56073e-06
6 *780:A *1075:CK 3.58094e-06
7 *904:C2 *808:A 4.84924e-06
8 *905:A3 *904:C2 5.76113e-07
9 *178:12 *780:A 1.02922e-05
10 *178:12 *904:C2 5.10087e-06
11 *181:29 *904:C2 3.71299e-05
12 *223:35 *780:A 6.78427e-05
13 *223:43 *780:A 8.21126e-06
14 *223:43 *904:C2 2.30628e-05
15 *224:29 *780:A 0
*RES
1 *1075:Q *483:6 10 
2 *483:6 *780:A 20.3929 
3 *483:6 *904:C2 15.3571 
*END

*D_NET *484 0.000626255
*CONN
*I *910:B2 I *D AOI22_X1
*I *781:A I *D MUX2_X1
*I *1076:Q O *D DFF_X1
*CAP
1 *910:B2 4.96556e-05
2 *781:A 6.2207e-05
3 *1076:Q 3.79575e-05
4 *484:8 0.00014982
5 *781:A *907:B2 1.60038e-06
6 *781:A *636:14 1.14246e-05
7 *781:A *636:26 3.01585e-05
8 *910:B2 *907:B2 5.07212e-05
9 *910:B2 *1076:CK 7.72792e-06
10 *910:B2 *500:26 3.19376e-05
11 *910:B2 *626:37 2.04227e-05
12 *484:8 *636:14 8.84041e-05
13 *781:S *781:A 7.19036e-06
14 *1076:D *781:A 3.0943e-05
15 *225:80 *781:A 2.40557e-06
16 *225:80 *484:8 9.12482e-06
17 *225:84 *781:A 9.71956e-07
18 *225:97 *781:A 3.35822e-05
*RES
1 *1076:Q *484:8 15 
2 *484:8 *781:A 18.0714 
3 *484:8 *910:B2 17.6786 
*END

*D_NET *485 0.000403778
*CONN
*I *924:B2 I *D AOI22_X1
*I *782:A I *D MUX2_X1
*I *1077:Q O *D DFF_X1
*CAP
1 *924:B2 8.03225e-05
2 *782:A 7.69709e-05
3 *1077:Q 0
4 *485:6 0.000157293
5 *782:A *627:71 0
6 *924:B2 *924:B1 2.39679e-06
7 *924:B2 *626:76 1.70233e-05
8 *784:S *782:A 7.72792e-06
9 *924:A1 *924:B2 8.09419e-06
10 *1077:D *782:A 1.55581e-05
11 *225:101 *782:A 1.43037e-05
12 *227:106 *782:A 1.47937e-05
13 *227:106 *924:B2 9.29318e-06
*RES
1 *1077:Q *485:6 10 
2 *485:6 *782:A 19.25 
3 *485:6 *924:B2 18.8214 
*END

*D_NET *486 0.00130795
*CONN
*I *931:B2 I *D AOI22_X1
*I *783:A I *D MUX2_X1
*I *1078:Q O *D DFF_X1
*CAP
1 *931:B2 0.000146502
2 *783:A 0.000166198
3 *1078:Q 0
4 *486:6 0.0003127
5 *783:A *783:B 8.64759e-06
6 *783:A *832:A 9.62001e-06
7 *783:A *832:B 7.72537e-06
8 *783:A *605:96 6.38328e-07
9 *783:A *626:33 0.00013036
10 *783:A *633:46 1.25431e-05
11 *783:A *637:27 9.18388e-06
12 *783:A *637:31 4.66523e-06
13 *931:B2 *759:A 5.16491e-05
14 *931:B2 *931:B1 2.39679e-06
15 *931:B2 *1043:CK 4.04839e-05
16 *931:B2 *603:85 4.00808e-06
17 *931:B2 *626:33 0.000186591
18 *931:B2 *633:46 9.22998e-06
19 *900:B1 *783:A 0
20 *931:A2 *931:B2 1.28122e-06
21 *1022:D *783:A 4.25496e-05
22 *1078:D *783:A 1.1812e-05
23 *188:64 *931:B2 6.37304e-05
24 *191:29 *931:B2 1.33704e-05
25 *208:22 *783:A 1.89463e-06
26 *208:22 *931:B2 7.64143e-06
27 *225:80 *783:A 6.2527e-05
28 *231:27 *931:B2 0
*RES
1 *1078:Q *486:6 10 
2 *486:6 *783:A 32.4643 
3 *486:6 *931:B2 30.1072 
*END

*D_NET *487 0.000538605
*CONN
*I *784:A I *D MUX2_X1
*I *945:A1 I *D AOI22_X1
*I *1079:Q O *D DFF_X1
*CAP
1 *784:A 5.73621e-05
2 *945:A1 8.42665e-05
3 *1079:Q 8.71307e-06
4 *487:6 0.000150342
5 *784:A *784:B 7.16188e-07
6 *784:A *791:S 0
7 *945:A1 *791:S 0
8 *945:A1 *861:A 5.54369e-05
9 *945:A1 *944:B2 1.29947e-05
10 *945:A1 *945:B1 4.32144e-07
11 *945:A1 *945:B2 3.23826e-05
12 *945:A1 *606:87 6.89712e-05
13 *784:S *784:A 2.5922e-05
14 *784:S *945:A1 4.10663e-05
15 *784:S *487:6 0
*RES
1 *1079:Q *487:6 5.92857 
2 *487:6 *945:A1 28.3929 
3 *487:6 *784:A 11.75 
*END

*D_NET *488 0.000388979
*CONN
*I *738:A I *D MUX2_X1
*I *716:B2 I *D AOI22_X1
*I *1080:Q O *D DFF_X1
*CAP
1 *738:A 2.90606e-05
2 *716:B2 7.6507e-05
3 *1080:Q 6.62225e-06
4 *488:6 0.00011219
5 *716:B2 *732:B 1.19839e-05
6 *716:B2 *496:12 1.97851e-05
7 *716:B2 *504:6 7.19036e-06
8 *716:B2 *626:57 7.16188e-07
9 *716:B2 *626:76 2.14856e-06
10 *716:B2 *627:71 6.99422e-05
11 *738:A *627:71 2.7241e-05
12 *738:S *738:A 1.13571e-05
13 *738:S *488:6 6.56185e-06
14 *225:97 *716:B2 7.67361e-06
15 *225:97 *738:A 0
16 *225:101 *738:A 0
*RES
1 *1080:Q *488:6 5.92857 
2 *488:6 *716:B2 15.3571 
3 *488:6 *738:A 9.03572 
*END

*D_NET *489 0.00059886
*CONN
*I *771:A I *D MUX2_X1
*I *881:B2 I *D AOI22_X1
*I *1081:Q O *D DFF_X1
*CAP
1 *771:A 0
2 *881:B2 7.81612e-05
3 *1081:Q 0.00014106
4 *489:12 0.000219221
5 *881:B2 *600:77 2.31363e-05
6 *881:B2 *600:105 7.91185e-06
7 *881:B2 *623:10 9.40283e-06
8 *489:12 *977:CK 1.63123e-05
9 *489:12 *607:82 2.69444e-05
10 *489:12 *646:25 1.40285e-05
11 *849:S *489:12 1.58475e-05
12 *856:S *489:12 4.04712e-06
13 *883:A1 *881:B2 1.16072e-05
14 *883:A1 *489:12 6.66538e-06
15 *231:60 *881:B2 1.95465e-05
16 *231:60 *489:12 4.9678e-06
*RES
1 *1081:Q *489:12 30.5357 
2 *489:12 *881:B2 24.3929 
3 *489:12 *771:A 5 
*END

*D_NET *490 0.000766265
*CONN
*I *772:A I *D MUX2_X1
*I *886:B2 I *D AOI22_X1
*I *1082:Q O *D DFF_X1
*CAP
1 *772:A 0.000124062
2 *886:B2 6.65132e-05
3 *1082:Q 3.02178e-05
4 *490:6 0.000220793
5 *772:A *772:B 6.48216e-07
6 *772:A *648:39 4.37715e-05
7 *772:A *648:48 6.3012e-05
8 *886:B2 *886:A1 9.99626e-06
9 *886:B2 *886:B1 2.39679e-06
10 *757:S *772:A 8.82762e-06
11 *764:S *886:B2 1.8707e-05
12 *764:S *490:6 1.92715e-05
13 *199:33 *772:A 0
14 *199:37 *772:A 0
15 *225:26 *772:A 1.43238e-06
16 *230:35 *886:B2 0.000100108
17 *230:35 *490:6 4.6282e-05
18 *232:132 *772:A 9.0076e-06
19 *232:138 *772:A 1.21774e-06
*RES
1 *1082:Q *490:6 9.75 
2 *490:6 *886:B2 14.75 
3 *490:6 *772:A 30.25 
*END

*D_NET *491 0.000701241
*CONN
*I *773:A I *D MUX2_X1
*I *899:B2 I *D AOI22_X1
*I *1083:Q O *D DFF_X1
*CAP
1 *773:A 7.3901e-05
2 *899:B2 0.000179512
3 *1083:Q 0
4 *491:4 0.000253413
5 *773:A *1091:CK 0
6 *773:A *602:62 6.48216e-07
7 *899:B2 *899:A1 1.43238e-06
8 *899:B2 *618:37 8.5943e-06
9 *899:B2 *634:12 1.55606e-05
10 *899:B2 *634:16 6.9451e-06
11 *773:S *773:A 2.39679e-06
12 *899:B1 *899:B2 2.75346e-06
13 *902:A2 *773:A 9.32048e-05
14 *902:A2 *899:B2 1.40196e-05
15 *1083:D *773:A 1.96555e-05
16 *1083:D *899:B2 2.92045e-05
*RES
1 *1083:Q *491:4 5 
2 *491:4 *899:B2 34.8572 
3 *491:4 *773:A 24.5 
*END

*D_NET *492 0.000988322
*CONN
*I *774:A I *D MUX2_X1
*I *907:B2 I *D AOI22_X1
*I *1084:Q O *D DFF_X1
*CAP
1 *774:A 9.11366e-05
2 *907:B2 0.000211219
3 *1084:Q 8.23929e-06
4 *492:6 0.000310595
5 *774:A *767:B 4.12459e-06
6 *774:A *500:6 2.70833e-06
7 *774:A *500:26 2.37615e-05
8 *774:A *603:21 4.30548e-05
9 *774:A *626:57 5.08248e-05
10 *907:B2 *907:A1 3.16521e-05
11 *907:B2 *1076:CK 7.19036e-06
12 *907:B2 *499:12 2.39679e-06
13 *907:B2 *500:26 6.41624e-05
14 *907:B2 *603:21 1.87736e-05
15 *907:B2 *626:37 8.43215e-07
16 *907:B2 *626:51 5.05756e-06
17 *781:A *907:B2 1.60038e-06
18 *907:B1 *907:B2 1.32323e-05
19 *910:B2 *907:B2 5.07212e-05
20 *1076:D *907:B2 1.01463e-05
21 *1173:A *907:B2 3.37909e-05
22 *225:97 *907:B2 0
23 *232:50 *774:A 3.09143e-06
*RES
1 *1084:Q *492:6 5.92857 
2 *492:6 *907:B2 31.6072 
3 *492:6 *774:A 18.6071 
*END

*D_NET *493 0.000455164
*CONN
*I *922:B2 I *D AOI22_X1
*I *775:A I *D MUX2_X1
*I *1085:Q O *D DFF_X1
*CAP
1 *922:B2 2.94438e-05
2 *775:A 0.000121762
3 *1085:Q 0
4 *493:6 0.000151206
5 *775:A *775:B 7.16188e-07
6 *775:A *645:80 0
7 *775:A *645:89 0
8 *922:B2 *922:A1 1.39839e-06
9 *922:B2 *922:B1 2.39679e-06
10 *922:B2 *604:36 0
11 *922:B2 *645:89 0
12 *775:S *775:A 3.96215e-05
13 *943:B1 *775:A 8.99697e-05
14 *943:B1 *922:B2 1.36811e-05
15 *953:A1 *922:B2 4.9678e-06
16 *953:A3 *775:A 0
17 *1085:D *775:A 0
18 *303:12 *775:A 0
*RES
1 *1085:Q *493:6 10 
2 *493:6 *775:A 26.2143 
3 *493:6 *922:B2 13.5357 
*END

*D_NET *494 0.00117618
*CONN
*I *933:B2 I *D AOI22_X1
*I *776:A I *D MUX2_X1
*I *1086:Q O *D DFF_X1
*CAP
1 *933:B2 8.58668e-05
2 *776:A 0.00020457
3 *1086:Q 4.01409e-05
4 *494:8 0.000330577
5 *776:A *802:B 0
6 *776:A *1052:CK 0
7 *776:A *605:68 1.21774e-06
8 *776:A *605:79 2.36748e-05
9 *776:A *619:54 0
10 *776:A *626:33 0.000181328
11 *776:A *633:97 1.53051e-05
12 *776:A *636:8 4.86813e-05
13 *776:A *636:100 2.75346e-06
14 *776:A *637:35 2.52154e-06
15 *933:B2 *616:45 0
16 *933:B2 *637:41 1.82068e-05
17 *494:8 *626:33 8.43155e-05
18 *494:8 *637:35 9.41771e-06
19 *776:S *776:A 4.21607e-06
20 *211:44 *933:B2 0.000123391
21 *270:14 *776:A 0
*RES
1 *1086:Q *494:8 15 
2 *494:8 *776:A 34.9286 
3 *494:8 *933:B2 21.75 
*END

*D_NET *495 0.000688143
*CONN
*I *945:B2 I *D AOI22_X1
*I *777:A I *D MUX2_X1
*I *1087:Q O *D DFF_X1
*CAP
1 *945:B2 9.7134e-05
2 *777:A 0.000113145
3 *1087:Q 6.62442e-05
4 *495:8 0.000276523
5 *777:A *777:B 7.16188e-07
6 *777:A *991:CK 1.46241e-05
7 *777:A *1087:CK 2.38077e-06
8 *777:A *644:30 3.53824e-06
9 *777:A *644:55 5.86754e-06
10 *945:B2 *791:S 0
11 *945:B2 *945:B1 2.39679e-06
12 *945:B2 *519:8 1.74882e-05
13 *945:B2 *644:30 4.01727e-06
14 *495:8 *1087:CK 0
15 *495:8 *644:47 0
16 *777:S *777:A 2.20439e-05
17 *784:S *495:8 2.96406e-05
18 *945:A1 *945:B2 3.23826e-05
*RES
1 *1087:Q *495:8 17.25 
2 *495:8 *777:A 22.8571 
3 *495:8 *945:B2 21.5714 
*END

*D_NET *496 0.00119159
*CONN
*I *719:A1 I *D AOI22_X1
*I *752:A I *D MUX2_X1
*I *1088:Q O *D DFF_X1
*CAP
1 *719:A1 0.000156036
2 *752:A 7.91135e-05
3 *1088:Q 6.74916e-05
4 *496:12 0.000302641
5 *719:A1 *716:A1 0
6 *719:A1 *738:B 2.50734e-06
7 *719:A1 *868:S 1.39839e-06
8 *719:A1 *617:62 8.9079e-06
9 *719:A1 *619:105 0
10 *719:A1 *622:63 1.61315e-05
11 *719:A1 *622:67 4.4292e-05
12 *719:A1 *626:76 0
13 *719:A1 *627:71 6.48413e-05
14 *719:A1 *628:71 0
15 *752:A *738:B 1.24926e-06
16 *752:A *750:A 2.26103e-05
17 *752:A *607:33 4.18985e-05
18 *752:A *642:24 4.21607e-06
19 *496:12 *750:A 1.20435e-05
20 *496:12 *626:57 1.31083e-05
21 *716:B2 *496:12 1.97851e-05
22 *720:A2 *719:A1 2.26515e-05
23 *720:A3 *719:A1 1.48931e-06
24 *720:A4 *719:A1 1.18093e-05
25 *206:66 *719:A1 0.000256571
26 *222:64 *752:A 0
27 *225:97 *496:12 3.05398e-06
28 *232:50 *752:A 2.39679e-06
29 *232:50 *496:12 2.2822e-05
30 *232:67 *752:A 1.25215e-05
*RES
1 *1088:Q *496:12 18.9286 
2 *496:12 *752:A 19.2857 
3 *496:12 *719:A1 32.5357 
*END

*D_NET *497 0.000694689
*CONN
*I *874:B2 I *D AOI22_X1
*I *764:B I *D MUX2_X1
*I *1089:Q O *D DFF_X1
*CAP
1 *874:B2 4.82397e-05
2 *764:B 2.61783e-05
3 *1089:Q 9.58795e-05
4 *497:14 0.000170297
5 *764:B *600:145 7.16188e-07
6 *764:B *600:155 8.35706e-05
7 *764:B *633:341 3.0227e-05
8 *874:B2 *874:B1 4.30918e-06
9 *497:14 *874:B1 7.09755e-06
10 *497:14 *978:CK 1.25972e-05
11 *497:14 *1057:CK 5.10087e-06
12 *497:14 *600:155 1.67301e-06
13 *792:S *874:B2 2.39679e-06
14 *792:S *497:14 3.92921e-05
15 *874:A1 *874:B2 1.60267e-05
16 *878:A4 *874:B2 2.39679e-06
17 *1057:D *497:14 2.8246e-05
18 *209:31 *764:B 0
19 *209:31 *874:B2 4.51416e-05
20 *209:31 *497:14 3.21555e-05
21 *465:12 *874:B2 2.25089e-06
22 *465:12 *497:14 4.08958e-05
*RES
1 *1089:Q *497:14 27.6429 
2 *497:14 *764:B 20.0714 
3 *497:14 *874:B2 12.3571 
*END

*D_NET *498 0.000530983
*CONN
*I *765:B I *D MUX2_X1
*I *886:A1 I *D AOI22_X1
*I *1090:Q O *D DFF_X1
*CAP
1 *765:B 2.52263e-05
2 *886:A1 4.24325e-05
3 *1090:Q 1.99644e-05
4 *498:6 8.76232e-05
5 *765:B *601:81 0
6 *886:A1 *886:B1 2.52965e-06
7 *886:A1 *627:26 2.75346e-06
8 *886:A1 *627:35 6.24461e-05
9 *498:6 *627:35 3.83757e-05
10 *764:S *765:B 9.21315e-05
11 *764:S *886:A1 7.19036e-06
12 *764:S *498:6 3.59789e-05
13 *886:B2 *886:A1 9.99626e-06
14 *199:33 *765:B 0.000104334
*RES
1 *1090:Q *498:6 8.75 
2 *498:6 *886:A1 11.25 
3 *498:6 *765:B 20.6786 
*END

*D_NET *499 0.00048088
*CONN
*I *766:B I *D MUX2_X1
*I *899:A1 I *D AOI22_X1
*I *1091:Q O *D DFF_X1
*CAP
1 *766:B 0
2 *899:A1 4.18685e-05
3 *1091:Q 6.69845e-05
4 *499:12 0.000108853
5 *899:A1 *618:37 3.09143e-06
6 *499:12 *907:A1 4.32144e-07
7 *773:S *499:12 3.1962e-06
8 *899:A2 *899:A1 8.97107e-05
9 *899:A2 *499:12 9.04209e-05
10 *899:B1 *899:A1 3.54999e-05
11 *899:B1 *499:12 3.69935e-05
12 *899:B2 *899:A1 1.43238e-06
13 *902:A2 *899:A1 0
14 *907:B2 *499:12 2.39679e-06
15 *1091:D *499:12 0
*RES
1 *1091:Q *499:12 19.6786 
2 *499:12 *899:A1 16.4286 
3 *499:12 *766:B 10 
*END

*D_NET *500 0.00128007
*CONN
*I *767:B I *D MUX2_X1
*I *907:A1 I *D AOI22_X1
*I *1092:Q O *D DFF_X1
*CAP
1 *767:B 3.20268e-05
2 *907:A1 5.54327e-05
3 *1092:Q 7.42934e-06
4 *500:26 0.000256604
5 *500:6 0.000240627
6 *767:B *603:194 4.25509e-05
7 *767:B *626:57 1.25189e-05
8 *907:A1 *910:A1 3.30047e-06
9 *500:26 *908:B2 5.07441e-05
10 *500:26 *910:A1 8.89188e-05
11 *500:26 *603:21 4.12459e-06
12 *500:26 *603:83 3.29362e-06
13 *500:26 *626:33 4.18891e-06
14 *500:26 *626:37 1.26998e-05
15 *500:26 *626:51 2.0357e-05
16 *500:26 *626:57 0.000121925
17 *767:S *767:B 2.8801e-06
18 *773:S *907:A1 2.23278e-06
19 *774:A *767:B 4.12459e-06
20 *774:A *500:6 2.70833e-06
21 *774:A *500:26 2.37615e-05
22 *899:A2 *907:A1 3.09411e-06
23 *907:B1 *907:A1 1.32323e-05
24 *907:B2 *907:A1 3.16521e-05
25 *907:B2 *500:26 6.41624e-05
26 *908:A1 *500:26 2.79489e-05
27 *910:B2 *500:26 3.19376e-05
28 *911:A1 *907:A1 2.73619e-05
29 *911:A1 *500:26 2.37093e-06
30 *911:A4 *500:26 3.73965e-06
31 *1084:D *767:B 0
32 *1092:D *767:B 7.92487e-05
33 *208:36 *907:A1 2.43548e-06
34 *499:12 *907:A1 4.32144e-07
*RES
1 *1092:Q *500:6 5.92857 
2 *500:6 *500:26 49.9286 
3 *500:26 *907:A1 12.6786 
4 *500:6 *767:B 20.5714 
*END

*D_NET *501 0.000376988
*CONN
*I *768:B I *D MUX2_X1
*I *927:B2 I *D AOI22_X1
*I *1093:Q O *D DFF_X1
*CAP
1 *768:B 0.000106789
2 *927:B2 2.70943e-05
3 *1093:Q 0
4 *501:4 0.000133883
5 *768:B *768:A 1.96924e-05
6 *768:B *789:B 0
7 *768:B *926:B1 0
8 *768:B *1069:CK 1.53342e-05
9 *768:B *644:79 0
10 *927:B2 *926:B1 4.24381e-05
11 *927:B2 *927:B1 2.75346e-06
12 *927:B2 *1069:CK 1.19839e-05
13 *927:B2 *624:71 1.87369e-06
14 *784:S *768:B 7.65847e-06
15 *927:A1 *927:B2 4.32144e-07
16 *1069:D *768:B 8.43215e-07
17 *1093:D *768:B 6.21255e-06
*RES
1 *1093:Q *501:4 5 
2 *501:4 *927:B2 18.5357 
3 *501:4 *768:B 26.4643 
*END

*D_NET *502 0.000820316
*CONN
*I *933:A1 I *D AOI22_X1
*I *769:B I *D MUX2_X1
*I *1094:Q O *D DFF_X1
*CAP
1 *933:A1 0.000126916
2 *769:B 8.51569e-05
3 *1094:Q 4.63298e-05
4 *502:8 0.000258403
5 *769:B *1019:CK 1.10948e-05
6 *769:B *603:83 1.92438e-05
7 *769:B *637:41 1.80199e-05
8 *933:A1 *818:B 7.05152e-05
9 *933:A1 *632:70 0
10 *933:A1 *637:70 0
11 *502:8 *829:B 0
12 *502:8 *1019:CK 0
13 *502:8 *632:70 6.44569e-06
14 *719:A2 *933:A1 4.92988e-06
15 *933:A2 *933:A1 1.14964e-05
16 *1086:D *769:B 1.7302e-05
17 *211:44 *769:B 8.86009e-06
18 *211:44 *933:A1 8.32748e-06
19 *211:44 *502:8 0
20 *225:80 *769:B 0
21 *290:12 *933:A1 0.000127275
*RES
1 *1094:Q *502:8 10.2143 
2 *502:8 *769:B 24.3929 
3 *502:8 *933:A1 23.1072 
*END

*D_NET *503 0.000939855
*CONN
*I *770:B I *D MUX2_X1
*I *951:B2 I *D AOI22_X1
*I *1095:Q O *D DFF_X1
*CAP
1 *770:B 7.95547e-05
2 *951:B2 3.3044e-05
3 *1095:Q 3.40872e-05
4 *503:8 0.000146686
5 *770:B *840:A 0
6 *770:B *951:A1 6.51944e-05
7 *770:B *951:B1 7.19036e-06
8 *770:B *606:191 2.39679e-06
9 *770:B *627:55 1.74934e-05
10 *951:B2 *951:B1 3.62235e-05
11 *951:B2 *627:47 1.66988e-05
12 *503:8 *627:47 0.000191479
13 *919:B1 *951:B2 4.12796e-06
14 *949:A2 *951:B2 3.67585e-05
15 *1095:D *770:B 6.91187e-06
16 *190:101 *770:B 3.71316e-05
17 *286:8 *951:B2 2.89018e-05
18 *286:8 *503:8 0.000195975
*RES
1 *1095:Q *503:8 20.4286 
2 *503:8 *951:B2 15.3571 
3 *503:8 *770:B 21.25 
*END

*D_NET *504 0.000901323
*CONN
*I *732:B I *D MUX2_X1
*I *716:A1 I *D AOI22_X1
*I *1096:Q O *D DFF_X1
*CAP
1 *732:B 0.00015707
2 *716:A1 6.79614e-05
3 *1096:Q 5.97086e-06
4 *504:6 0.000231002
5 *716:A1 *713:B2 3.26905e-05
6 *716:A1 *738:B 5.33077e-05
7 *716:A1 *617:62 4.78532e-06
8 *716:A1 *626:76 3.80167e-06
9 *716:A1 *627:71 7.72537e-06
10 *732:B *607:20 3.75939e-05
11 *732:B *642:14 0
12 *732:B *642:18 0
13 *713:A1 *716:A1 6.38328e-07
14 *713:B1 *716:A1 2.48071e-06
15 *716:B2 *732:B 1.19839e-05
16 *716:B2 *504:6 7.19036e-06
17 *719:A1 *716:A1 0
18 *720:A2 *716:A1 1.17093e-06
19 *768:S *732:B 2.39679e-06
20 *1080:D *732:B 2.14856e-06
21 *1096:D *732:B 1.05461e-05
22 *222:64 *716:A1 6.60575e-05
23 *222:64 *732:B 0.000192285
24 *225:97 *732:B 1.11435e-06
25 *225:97 *504:6 1.40196e-06
26 *232:67 *732:B 0
*RES
1 *1096:Q *504:6 5.75 
2 *504:6 *716:A1 24.3214 
3 *504:6 *732:B 35.4286 
*END

*D_NET *505 0.00081026
*CONN
*I *877:A1 I *D AOI22_X1
*I *757:A I *D MUX2_X1
*I *1097:Q O *D DFF_X1
*CAP
1 *877:A1 4.60544e-05
2 *757:A 0.00014317
3 *1097:Q 0
4 *505:4 0.000189225
5 *757:A *600:23 2.08416e-06
6 *757:A *600:29 4.32298e-05
7 *757:A *600:145 0.000207788
8 *757:A *633:320 8.25513e-05
9 *757:A *633:326 1.28122e-06
10 *757:A *633:341 1.43538e-06
11 *757:A *648:8 9.51196e-06
12 *877:A1 *648:8 1.80259e-05
13 *877:A1 *648:12 1.66988e-05
14 *877:A1 *648:94 4.79358e-06
15 *757:S *757:A 5.52692e-06
16 *184:146 *877:A1 1.18301e-05
17 *188:106 *877:A1 2.42701e-05
18 *209:31 *757:A 0
19 *226:100 *757:A 2.78389e-06
20 *230:35 *757:A 0
21 *230:37 *757:A 0
22 *230:37 *877:A1 0
*RES
1 *1097:Q *505:4 5 
2 *505:4 *757:A 36.9286 
3 *505:4 *877:A1 21.5714 
*END

*D_NET *506 0.000451444
*CONN
*I *758:A I *D MUX2_X1
*I *887:A1 I *D AOI22_X1
*I *1098:Q O *D DFF_X1
*CAP
1 *758:A 4.9478e-05
2 *887:A1 3.71438e-05
3 *1098:Q 0.000112669
4 *506:8 0.000199291
5 *758:A *758:B 1.50364e-05
6 *758:A *758:S 2.75346e-06
7 *887:A1 *758:B 0
8 *506:8 *661:A 0
9 *506:8 *758:B 0
10 *506:8 *1098:CK 0
11 *506:8 *538:10 0
12 *887:A2 *887:A1 2.17522e-05
13 *178:115 *758:A 1.332e-05
*RES
1 *1098:Q *506:8 21.1071 
2 *506:8 *887:A1 13.6429 
3 *506:8 *758:A 16.25 
*END

*D_NET *507 0.000887216
*CONN
*I *759:A I *D MUX2_X1
*I *904:A1 I *D AOI222_X1
*I *1099:Q O *D DFF_X1
*CAP
1 *759:A 5.48591e-05
2 *904:A1 4.62305e-06
3 *1099:Q 0.000129048
4 *507:14 0.00018853
5 *759:A *759:B 3.82629e-05
6 *759:A *1043:CK 3.37286e-06
7 *904:A1 *759:B 7.72792e-06
8 *507:14 *931:A1 2.3767e-06
9 *507:14 *571:10 1.44707e-05
10 *737:A2 *507:14 9.62051e-07
11 *904:B1 *759:A 7.72792e-06
12 *931:B2 *759:A 5.16491e-05
13 *935:A1 *507:14 6.60545e-05
14 *1099:D *759:A 3.08967e-05
15 *1099:D *904:A1 7.19036e-06
16 *178:10 *507:14 2.23756e-05
17 *178:62 *507:14 0
18 *191:29 *759:A 3.90598e-05
19 *191:62 *759:A 5.50692e-06
20 *196:20 *507:14 2.89018e-05
21 *196:28 *507:14 3.18502e-05
22 *208:22 *759:A 1.31614e-06
23 *223:43 *759:A 4.87096e-06
24 *223:60 *759:A 2.75346e-06
25 *225:12 *507:14 0
26 *225:20 *507:14 2.42461e-05
27 *231:27 *507:14 0.000118583
*RES
1 *1099:Q *507:14 34.0357 
2 *507:14 *904:A1 5.75 
3 *507:14 *759:A 23.4643 
*END

*D_NET *508 0.000630344
*CONN
*I *760:A I *D MUX2_X1
*I *913:A1 I *D AOI22_X1
*I *1100:Q O *D DFF_X1
*CAP
1 *760:A 0
2 *913:A1 6.5731e-05
3 *1100:Q 0.000129809
4 *508:10 0.00019554
5 *913:A1 *809:B 2.52965e-06
6 *913:A1 *837:B 7.72537e-06
7 *913:A1 *603:148 2.84577e-05
8 *913:A1 *603:163 7.58809e-05
9 *508:10 *1036:CK 0
10 *508:10 *603:163 4.32298e-05
11 *912:B1 *913:A1 1.93879e-05
12 *912:B1 *508:10 2.37117e-05
13 *184:52 *913:A1 2.97636e-06
14 *188:126 *913:A1 2.22476e-05
15 *202:27 *913:A1 1.31175e-05
*RES
1 *1100:Q *508:10 24.8571 
2 *508:10 *913:A1 19.9286 
3 *508:10 *760:A 10 
*END

*D_NET *509 0.000594859
*CONN
*I *919:A1 I *D AOI22_X1
*I *761:A I *D MUX2_X1
*I *1101:Q O *D DFF_X1
*CAP
1 *919:A1 4.81252e-05
2 *761:A 2.9366e-05
3 *1101:Q 7.28051e-05
4 *509:10 0.000150296
5 *761:A *604:59 1.75824e-05
6 *761:A *621:61 1.26173e-05
7 *919:A1 *604:59 9.08971e-06
8 *919:A1 *621:61 9.18014e-06
9 *919:A1 *627:43 0.000115011
10 *509:10 *627:43 1.12514e-05
11 *757:S *509:10 6.56958e-06
12 *761:S *761:A 1.32323e-05
13 *923:A1 *919:A1 3.01743e-06
14 *1101:D *919:A1 1.64277e-05
15 *1101:D *509:10 1.12768e-05
16 *188:83 *919:A1 6.90107e-05
*RES
1 *1101:Q *509:10 22.7143 
2 *509:10 *761:A 9.25 
3 *509:10 *919:A1 23.6071 
*END

*D_NET *510 0.000512026
*CONN
*I *939:A1 I *D AOI22_X1
*I *762:A I *D MUX2_X1
*I *1102:Q O *D DFF_X1
*CAP
1 *939:A1 7.48152e-05
2 *762:A 0
3 *1102:Q 7.58396e-05
4 *510:12 0.000150655
5 *939:A1 *762:B 2.16072e-07
6 *939:A1 *939:B2 1.46871e-05
7 *510:12 *762:B 4.32298e-05
8 *762:S *939:A1 7.19036e-06
9 *939:A2 *939:A1 8.43215e-07
10 *940:A4 *939:A1 1.66585e-06
11 *942:A *510:12 0
12 *942:B2 *510:12 0
13 *979:D *510:12 2.83077e-06
14 *1102:D *939:A1 0
15 *206:20 *939:A1 7.19036e-06
16 *223:35 *939:A1 0
17 *228:18 *510:12 0.000132863
*RES
1 *1102:Q *510:12 25.7857 
2 *510:12 *762:A 5 
3 *510:12 *939:A1 13.3571 
*END

*D_NET *511 0.000528106
*CONN
*I *948:A1 I *D AOI22_X1
*I *763:A I *D MUX2_X1
*I *1103:Q O *D DFF_X1
*CAP
1 *948:A1 3.52178e-05
2 *763:A 9.17539e-05
3 *1103:Q 0
4 *511:4 0.000126972
5 *763:A *819:S 0
6 *763:A *1039:CK 3.48838e-06
7 *763:A *606:166 4.18985e-05
8 *763:A *633:308 2.97016e-05
9 *763:A *633:320 2.13496e-05
10 *763:A *645:10 2.19296e-06
11 *948:A1 *819:S 1.43544e-05
12 *948:A1 *948:B2 4.24423e-05
13 *763:S *763:A 2.75346e-06
14 *929:A2 *948:A1 4.37715e-05
15 *929:A3 *763:A 1.34605e-05
16 *929:A3 *948:A1 8.89978e-06
17 *949:A2 *763:A 0
18 *952:A1 *948:A1 1.36837e-05
19 *952:A3 *763:A 1.34605e-05
20 *952:A3 *948:A1 8.2465e-06
21 *952:A4 *763:A 5.52692e-06
22 *1103:D *763:A 8.93174e-06
*RES
1 *1103:Q *511:4 5 
2 *511:4 *763:A 27.8929 
3 *511:4 *948:A1 21.5714 
*END

*D_NET *512 0.000699628
*CONN
*I *734:A I *D MUX2_X1
*I *700:A1 I *D AOI22_X1
*I *1104:Q O *D DFF_X1
*CAP
1 *734:A 8.77772e-05
2 *700:A1 7.55524e-05
3 *1104:Q 0.000108361
4 *512:8 0.00027169
5 *734:A *758:S 7.16188e-07
6 *512:8 rd_data[3] 7.66675e-07
7 *512:8 *663:A 0
8 *698:A2 *734:A 2.87703e-06
9 *707:A1 *734:A 0
10 *707:A2 *700:A1 2.57504e-05
11 *707:A2 *734:A 0
12 *918:B2 *512:8 0
13 *184:73 *700:A1 0
14 *184:73 *734:A 0.000123384
15 *184:73 *512:8 0
16 *188:134 *700:A1 2.75346e-06
*RES
1 *1104:Q *512:8 21.1071 
2 *512:8 *700:A1 17.7143 
3 *512:8 *734:A 21.75 
*END

*D_NET *513 0.000588651
*CONN
*I *879:B2 I *D AOI22_X1
*I *855:A I *D MUX2_X1
*I *985:Q O *D DFF_X1
*CAP
1 *879:B2 4.50218e-05
2 *855:A 2.31342e-05
3 *985:Q 3.47757e-05
4 *513:10 0.000102932
5 *855:A *855:B 5.26067e-05
6 *879:B2 *879:A1 1.25189e-05
7 *513:10 *855:B 4.11048e-05
8 *513:10 *600:77 1.60038e-06
9 *513:10 *633:175 1.21774e-06
10 *879:A2 *879:B2 9.61797e-06
11 *879:B1 *879:B2 3.18369e-05
12 *883:A1 *879:B2 4.02055e-06
13 *883:A1 *513:10 3.69583e-05
14 *191:29 *855:A 9.21323e-05
15 *191:29 *513:10 3.71527e-05
16 *193:42 *879:B2 5.00262e-07
17 *208:22 *855:A 8.75656e-06
18 *212:32 *879:B2 2.64361e-05
19 *216:73 *513:10 2.63274e-05
*RES
1 *985:Q *513:10 16.0357 
2 *513:10 *855:A 15 
3 *513:10 *879:B2 15.75 
*END

*D_NET *514 0.000444068
*CONN
*I *889:B2 I *D AOI22_X1
*I *856:A I *D MUX2_X1
*I *986:Q O *D DFF_X1
*CAP
1 *889:B2 4.96665e-06
2 *856:A 6.33864e-05
3 *986:Q 3.68151e-05
4 *514:8 0.000105168
5 *856:A *886:B1 1.53761e-05
6 *856:A *601:81 4.32819e-05
7 *856:A *621:48 5.16161e-05
8 *856:A *625:33 7.79777e-05
9 *889:B2 *601:81 6.32461e-06
10 *514:8 *889:A1 1.60038e-06
11 *514:8 *627:26 8.89643e-06
12 *514:8 *627:35 3.09143e-06
13 *889:A2 *514:8 4.59552e-06
14 *889:B1 *514:8 3.09143e-06
15 *205:75 *856:A 3.5494e-06
16 *230:35 *514:8 0
17 *247:10 *856:A 1.16067e-05
18 *247:10 *889:B2 2.72417e-06
*RES
1 *986:Q *514:8 13.75 
2 *514:8 *856:A 19.75 
3 *514:8 *889:B2 10.9286 
*END

*D_NET *515 0.000870869
*CONN
*I *901:B2 I *D AOI22_X1
*I *857:A I *D MUX2_X1
*I *987:Q O *D DFF_X1
*CAP
1 *901:B2 6.7498e-05
2 *857:A 3.94759e-05
3 *987:Q 4.75018e-05
4 *515:8 0.000154476
5 *857:A *857:B 1.40196e-06
6 *857:A *602:32 4.13157e-05
7 *857:A *602:47 0.000114492
8 *857:A *618:16 0.000156922
9 *857:A *618:20 1.44777e-05
10 *901:B2 *901:A1 1.13266e-05
11 *901:B2 *602:47 3.02372e-05
12 *901:B2 *617:18 0
13 *901:B2 *618:16 0.000110358
14 *515:8 *787:S 5.52692e-06
15 *515:8 *602:47 2.52965e-06
16 *515:8 *602:58 1.67419e-05
17 *515:8 *634:22 0
18 *787:A *901:B2 1.89413e-05
19 *258:24 *901:B2 3.76469e-05
*RES
1 *987:Q *515:8 15.25 
2 *515:8 *857:A 19.6429 
3 *515:8 *901:B2 20.1071 
*END

*D_NET *516 0.000989988
*CONN
*I *908:B2 I *D AOI22_X1
*I *858:A I *D MUX2_X1
*I *988:Q O *D DFF_X1
*CAP
1 *908:B2 8.62285e-05
2 *858:A 0.000151935
3 *988:Q 3.07741e-05
4 *516:8 0.000268938
5 *858:A *795:B 5.11191e-06
6 *858:A *858:B 0
7 *858:A *858:S 9.69682e-06
8 *858:A *603:27 1.82068e-05
9 *858:A *603:31 1.19839e-05
10 *858:A *603:42 0
11 *858:A *618:37 7.72537e-06
12 *858:A *618:56 2.51931e-06
13 *858:A *618:58 2.34421e-05
14 *858:A *636:26 6.61717e-05
15 *908:B2 *603:27 5.94167e-07
16 *908:B2 *603:83 1.34913e-06
17 *908:B2 *626:33 9.9358e-06
18 *908:B2 *626:51 5.22833e-05
19 *908:B2 *636:100 0
20 *516:8 *618:58 4.2375e-05
21 *795:A *908:B2 9.77674e-06
22 *795:S *858:A 8.18649e-06
23 *908:A1 *908:B2 2.68122e-05
24 *910:A2 *908:B2 1.07471e-05
25 *911:A1 *908:B2 3.09411e-06
26 *988:D *858:A 0
27 *225:97 *858:A 5.84468e-05
28 *225:97 *516:8 3.29087e-05
29 *500:26 *908:B2 5.07441e-05
*RES
1 *988:Q *516:8 10.1786 
2 *516:8 *858:A 33.3214 
3 *516:8 *908:B2 25.5 
*END

*D_NET *517 0.000859537
*CONN
*I *926:B2 I *D AOI22_X1
*I *859:A I *D MUX2_X1
*I *989:Q O *D DFF_X1
*CAP
1 *926:B2 0.000118061
2 *859:A 8.57156e-05
3 *989:Q 0
4 *517:4 0.000203776
5 *859:A *777:B 0.000127948
6 *859:A *859:B 0.000124403
7 *859:A *859:S 1.87808e-05
8 *859:A *861:S 1.68643e-06
9 *859:A *604:137 7.72537e-06
10 *926:B2 *604:122 4.91218e-05
11 *926:B2 *604:137 1.22428e-05
12 *784:S *859:A 1.04588e-05
13 *784:S *926:B2 6.96315e-05
14 *926:A1 *926:B2 2.99872e-05
*RES
1 *989:Q *517:4 5 
2 *517:4 *859:A 28.5357 
3 *517:4 *926:B2 31.7857 
*END

*D_NET *518 0.000772851
*CONN
*I *932:B2 I *D AOI22_X1
*I *860:A I *D MUX2_X1
*I *990:Q O *D DFF_X1
*CAP
1 *932:B2 2.8664e-05
2 *860:A 4.923e-05
3 *990:Q 6.03861e-05
4 *518:8 0.00013828
5 *860:A *860:B 1.39839e-06
6 *860:A *605:96 1.43238e-06
7 *518:8 *1030:CK 2.7703e-06
8 *518:8 *633:25 7.54976e-06
9 *860:S *860:A 3.20228e-05
10 *860:S *518:8 0.000245701
11 *932:B1 *932:B2 2.84174e-05
12 *935:A2 *932:B2 1.13504e-06
13 *935:A2 *518:8 0.000132863
14 *208:22 *860:A 0
15 *208:22 *518:8 0
16 *291:14 *932:B2 4.30003e-05
*RES
1 *990:Q *518:8 23.1429 
2 *518:8 *860:A 15.8929 
3 *518:8 *932:B2 14.25 
*END

*D_NET *519 0.000508712
*CONN
*I *944:B2 I *D AOI22_X1
*I *861:A I *D MUX2_X1
*I *991:Q O *D DFF_X1
*CAP
1 *944:B2 2.00802e-05
2 *861:A 4.1368e-05
3 *991:Q 3.27393e-05
4 *519:8 9.41875e-05
5 *861:A *777:B 4.32298e-05
6 *861:A *606:87 2.06937e-05
7 *944:B2 *606:87 2.35968e-05
8 *519:8 *791:S 7.34989e-06
9 *519:8 *945:B1 2.39679e-06
10 *945:A1 *861:A 5.54369e-05
11 *945:A1 *944:B2 1.29947e-05
12 *945:B2 *519:8 1.74882e-05
13 *947:A3 *944:B2 6.89712e-05
14 *991:D *861:A 6.81795e-05
*RES
1 *991:Q *519:8 14.25 
2 *519:8 *861:A 17.0357 
3 *519:8 *944:B2 14.3214 
*END

*D_NET *520 0.00139774
*CONN
*I *750:A I *D MUX2_X1
*I *719:B2 I *D AOI22_X1
*I *992:Q O *D DFF_X1
*CAP
1 *750:A 0.000107275
2 *719:B2 0.000226207
3 *992:Q 2.12773e-05
4 *520:6 0.000354759
5 *719:B2 *719:B1 1.74934e-05
6 *719:B2 *528:12 0
7 *719:B2 *603:5 5.64879e-06
8 *719:B2 *603:181 0
9 *719:B2 *607:41 1.45398e-05
10 *719:B2 *607:54 6.49768e-05
11 *719:B2 *607:60 0
12 *719:B2 *616:49 0
13 *719:B2 *617:43 5.58294e-05
14 *719:B2 *617:62 3.66473e-05
15 *719:B2 *619:105 2.35807e-05
16 *750:A *750:S 0.000167873
17 *750:A *607:33 0.000115354
18 *520:6 *603:9 2.80727e-05
19 *752:A *750:A 2.26103e-05
20 *984:D *719:B2 0
21 *225:97 *750:A 5.69366e-05
22 *225:97 *520:6 3.89107e-05
23 *232:50 *750:A 6.65423e-06
24 *232:50 *520:6 4.12459e-06
25 *464:10 *719:B2 1.69265e-05
26 *496:12 *750:A 1.20435e-05
*RES
1 *992:Q *520:6 8.75 
2 *520:6 *719:B2 41.3572 
3 *520:6 *750:A 32.5357 
*END

*D_NET *521 0.000889798
*CONN
*I *880:B2 I *D AOI22_X1
*I *848:A I *D MUX2_X1
*I *993:Q O *D DFF_X1
*CAP
1 *880:B2 0.000127946
2 *848:A 0.000125994
3 *993:Q 5.96785e-06
4 *521:8 0.000259907
5 *848:A *848:B 3.05353e-05
6 *848:A *600:50 1.83154e-06
7 *848:A *607:82 5.14178e-06
8 *880:B2 *880:A1 3.19164e-07
9 *880:B2 *553:10 5.29373e-05
10 *771:S *848:A 2.65716e-06
11 *771:S *521:8 5.56463e-06
12 *848:S *848:A 1.32323e-05
13 *883:A2 *880:B2 3.90114e-06
14 *181:29 *848:A 1.87637e-06
15 *191:62 *848:A 3.46186e-05
16 *216:98 *880:B2 1.43807e-05
17 *216:102 *880:B2 2.72876e-05
18 *223:60 *848:A 4.95922e-06
19 *225:20 *880:B2 0.000115208
20 *233:27 *848:A 2.66485e-05
21 *233:27 *521:8 2.05745e-06
22 *233:48 *848:A 2.68269e-05
*RES
1 *993:Q *521:8 10.9286 
2 *521:8 *848:A 26.0357 
3 *521:8 *880:B2 28.3572 
*END

*D_NET *522 0.000962672
*CONN
*I *889:A1 I *D AOI22_X1
*I *849:A I *D MUX2_X1
*I *994:Q O *D DFF_X1
*CAP
1 *889:A1 9.92853e-05
2 *849:A 8.12861e-05
3 *994:Q 1.68203e-05
4 *522:8 0.000197392
5 *849:A *880:A1 0
6 *849:A *553:10 0
7 *889:A1 *631:76 4.12796e-06
8 *522:8 *633:378 7.33336e-08
9 *522:8 *633:387 3.06073e-06
10 *856:S *849:A 2.68624e-05
11 *883:A1 *849:A 0
12 *889:A2 *889:A1 0.000108291
13 *889:A2 *522:8 4.32144e-07
14 *889:B1 *889:A1 8.43215e-07
15 *206:42 *889:A1 6.54588e-06
16 *206:42 *522:8 3.24108e-07
17 *206:52 *849:A 0.000190127
18 *206:52 *889:A1 4.26902e-05
19 *209:31 *889:A1 9.63363e-05
20 *245:12 *849:A 6.71076e-05
21 *245:12 *889:A1 1.94663e-05
22 *514:8 *889:A1 1.60038e-06
*RES
1 *994:Q *522:8 11.25 
2 *522:8 *849:A 23.1786 
3 *522:8 *889:A1 25.8929 
*END

*D_NET *523 0.000585119
*CONN
*I *901:A1 I *D AOI22_X1
*I *850:A I *D MUX2_X1
*I *995:Q O *D DFF_X1
*CAP
1 *901:A1 4.56134e-05
2 *850:A 1.95158e-05
3 *995:Q 0.000118488
4 *523:10 0.000183618
5 *850:A *850:S 2.75346e-06
6 *850:A *617:18 2.72722e-05
7 *850:A *618:16 1.69426e-06
8 *901:A1 *850:B 7.72537e-06
9 *901:A1 *617:18 5.03044e-06
10 *523:10 *787:S 2.26103e-05
11 *523:10 *1006:CK 4.32319e-05
12 *523:10 *1183:A 0
13 *523:10 *1199:A 9.81049e-06
14 *523:10 *605:53 0
15 *523:10 *605:68 3.51992e-06
16 *523:10 *617:18 4.12732e-05
17 *523:10 *618:16 3.79451e-06
18 *901:B2 *901:A1 1.13266e-05
19 *902:A4 *523:10 4.59099e-06
20 *1006:D *523:10 1.07701e-05
21 *190:40 *901:A1 6.06068e-06
22 *190:40 *523:10 1.23839e-05
23 *258:24 *850:A 2.43548e-06
24 *258:24 *901:A1 1.60038e-06
*RES
1 *995:Q *523:10 24.4286 
2 *523:10 *850:A 12.3571 
3 *523:10 *901:A1 15.6786 
*END

*D_NET *524 0.000530905
*CONN
*I *909:B2 I *D AOI22_X1
*I *851:A I *D MUX2_X1
*I *996:Q O *D DFF_X1
*CAP
1 *909:B2 3.57468e-05
2 *851:A 4.37768e-05
3 *996:Q 0.00011147
4 *524:10 0.000190993
5 *851:A *844:B 0
6 *909:B2 *844:A 0
7 *909:B2 *851:B 7.35445e-06
8 *909:B2 *909:A2 1.91498e-06
9 *524:10 *844:B 0
10 *524:10 *909:A1 0
11 *524:10 *909:A2 0
12 *524:10 *616:45 4.38869e-05
13 *524:10 *619:54 1.69553e-05
14 *909:B1 *909:B2 1.21774e-06
15 *911:A3 *909:B2 3.35822e-05
16 *1004:D *524:10 4.93042e-06
17 *1092:D *851:A 0
18 *212:36 *851:A 1.07993e-05
19 *212:36 *524:10 2.82773e-05
*RES
1 *996:Q *524:10 24 
2 *524:10 *851:A 14.3214 
3 *524:10 *909:B2 14.75 
*END

*D_NET *525 0.000687192
*CONN
*I *921:B2 I *D AOI22_X1
*I *852:A I *D MUX2_X1
*I *997:Q O *D DFF_X1
*CAP
1 *921:B2 1.83668e-05
2 *852:A 0.000149003
3 *997:Q 0.000103719
4 *525:10 0.000271089
5 *852:A *824:A 1.29084e-05
6 *852:A *950:A2 2.1051e-05
7 *852:A *604:196 1.62192e-05
8 *852:A *632:56 0
9 *921:B2 *921:A1 1.81088e-05
10 *525:10 *921:A1 2.63106e-06
11 *525:10 *632:56 0
12 *852:S *852:A 2.75744e-05
13 *923:A3 *921:B2 3.65322e-06
14 *997:D *852:A 3.83327e-06
15 *206:56 *525:10 1.29411e-05
16 *206:62 *921:B2 2.75346e-06
17 *214:14 *852:A 0
18 *214:14 *525:10 0
19 *216:102 *525:10 1.72757e-05
20 *233:48 *921:B2 6.06412e-06
*RES
1 *997:Q *525:10 19.4643 
2 *525:10 *852:A 26.1429 
3 *525:10 *921:B2 12.75 
*END

*D_NET *526 0.000644115
*CONN
*I *939:B2 I *D AOI22_X1
*I *853:A I *D MUX2_X1
*I *998:Q O *D DFF_X1
*CAP
1 *939:B2 9.04347e-05
2 *853:A 5.72842e-05
3 *998:Q 6.71114e-05
4 *526:12 0.00021483
5 *853:A *762:B 0
6 *853:A *853:S 7.72792e-06
7 *853:A *605:170 4.26902e-05
8 *853:A *605:177 6.48216e-07
9 *853:A *635:56 2.00207e-05
10 *853:A *635:69 5.56848e-05
11 *939:B2 *762:B 0
12 *939:B2 *839:B 0
13 *939:B2 *605:177 0
14 *939:B2 *635:56 2.56243e-06
15 *526:12 *964:CK 0
16 *526:12 *998:CK 7.34533e-06
17 *526:12 *635:69 0
18 *762:S *939:B2 3.09411e-06
19 *939:A1 *939:B2 1.46871e-05
20 *1102:D *939:B2 2.80752e-05
21 *1102:D *526:12 7.19036e-06
22 *206:20 *939:B2 2.39679e-06
23 *226:16 *526:12 2.2331e-05
*RES
1 *998:Q *526:12 22.7143 
2 *526:12 *853:A 23.4643 
3 *526:12 *939:B2 14.75 
*END

*D_NET *527 0.000825534
*CONN
*I *946:B2 I *D AOI22_X1
*I *854:A I *D MUX2_X1
*I *999:Q O *D DFF_X1
*CAP
1 *946:B2 9.02952e-05
2 *854:A 0.00010165
3 *999:Q 6.58251e-05
4 *527:10 0.00025777
5 *854:A *854:S 4.37069e-05
6 *854:A *604:88 6.01359e-05
7 *854:A *604:101 1.87369e-06
8 *854:A *619:105 4.79658e-06
9 *946:B2 *868:S 0
10 *946:B2 *642:8 7.34533e-06
11 *527:10 *604:88 3.02296e-05
12 *527:10 *628:88 7.74073e-06
13 *868:A *854:A 2.00032e-05
14 *868:A *527:10 1.74984e-05
15 *946:A1 *527:10 8.9566e-06
16 *946:B1 *946:B2 2.75346e-06
17 *981:D *854:A 1.52083e-06
18 *983:D *946:B2 1.26998e-05
19 *205:81 *527:10 1.67377e-05
20 *214:14 *854:A 0
21 *302:14 *946:B2 4.71576e-05
22 *302:14 *527:10 1.28122e-06
23 *461:10 *854:A 1.47939e-05
24 *463:8 *527:10 1.07633e-05
*RES
1 *999:Q *527:10 19.0714 
2 *527:10 *854:A 23.8214 
3 *527:10 *946:B2 21.25 
*END

*D_NET *528 0.000693094
*CONN
*I *713:B2 I *D AOI22_X1
*I *754:A I *D MUX2_X1
*I *1000:Q O *D DFF_X1
*CAP
1 *713:B2 8.83987e-05
2 *754:A 0
3 *1000:Q 0.000168766
4 *528:12 0.000257165
5 *713:B2 *738:B 2.39679e-06
6 *713:B2 *754:B 4.32144e-07
7 *713:B2 *617:62 1.91571e-05
8 *713:B2 *624:71 0
9 *713:B2 *626:57 3.71181e-05
10 *713:B2 *626:76 4.16634e-05
11 *713:B2 *627:71 3.19164e-07
12 *528:12 *754:B 2.16072e-07
13 *528:12 *607:60 1.55562e-05
14 *528:12 *626:57 8.77046e-06
15 *713:B1 *713:B2 2.86475e-06
16 *716:A1 *713:B2 3.26905e-05
17 *719:B2 *528:12 0
18 *909:B1 *528:12 0
19 *1000:D *528:12 1.65484e-05
20 *1084:D *528:12 1.03226e-06
*RES
1 *1000:Q *528:12 32.5714 
2 *528:12 *754:A 5 
3 *528:12 *713:B2 18.0357 
*END

*D_NET *529 0.000808238
*CONN
*I *875:B2 I *D AOI22_X1
*I *841:A I *D MUX2_X1
*I *1001:Q O *D DFF_X1
*CAP
1 *875:B2 5.73612e-05
2 *841:A 5.91914e-05
3 *1001:Q 2.6348e-05
4 *529:8 0.000142901
5 *841:A *841:B 0.000207109
6 *841:A *842:A 0.00018459
7 *875:B2 *875:A1 1.18232e-06
8 *875:B2 *1001:CK 4.46232e-05
9 *875:B2 *530:8 1.91498e-06
10 *529:8 *841:B 6.23524e-05
11 *892:B1 *875:B2 0
12 *196:103 *841:A 1.53357e-05
13 *253:12 *841:A 2.14165e-06
14 *253:12 *529:8 3.18838e-06
*RES
1 *1001:Q *529:8 13.6429 
2 *529:8 *841:A 23.1429 
3 *529:8 *875:B2 16.9286 
*END

*D_NET *530 0.000683552
*CONN
*I *892:A1 I *D AOI22_X1
*I *842:A I *D MUX2_X1
*I *1002:Q O *D DFF_X1
*CAP
1 *892:A1 2.88172e-05
2 *842:A 0.000114199
3 *1002:Q 5.21904e-05
4 *530:8 0.000195207
5 *842:A *600:13 0
6 *892:A1 *875:A1 0
7 *892:A1 *1001:CK 3.09411e-06
8 *530:8 *1001:CK 2.52965e-06
9 *779:S *842:A 7.72537e-06
10 *841:A *842:A 0.00018459
11 *842:S *842:A 4.01401e-05
12 *875:B2 *530:8 1.91498e-06
13 *892:A2 *892:A1 8.26038e-06
14 *892:B1 *892:A1 1.8133e-05
15 *892:B1 *530:8 2.30036e-05
16 *196:103 *842:A 1.61249e-06
17 *253:12 *842:A 2.13573e-06
*RES
1 *1002:Q *530:8 10.6786 
2 *530:8 *842:A 31.6071 
3 *530:8 *892:A1 8.75 
*END

*D_NET *531 0.000485635
*CONN
*I *843:A I *D MUX2_X1
*I *900:C2 I *D AOI222_X1
*I *1003:Q O *D DFF_X1
*CAP
1 *843:A 5.16412e-05
2 *900:C2 7.25775e-06
3 *1003:Q 4.3545e-05
4 *531:8 0.000102444
5 *843:A *602:95 4.18985e-05
6 *843:A *602:110 0.000125437
7 *843:A *616:45 1.68643e-06
8 *843:A *619:47 2.39679e-06
9 *843:A *619:54 7.72792e-06
10 *843:A *633:63 2.19416e-05
11 *843:A *634:10 1.90956e-05
12 *900:C2 *628:16 1.68643e-06
13 *531:8 *1019:CK 0
14 *531:8 *628:16 1.44005e-05
15 *815:S *843:A 4.208e-05
16 *815:S *900:C2 2.39679e-06
17 *190:30 *900:C2 0
18 *190:30 *531:8 0
*RES
1 *1003:Q *531:8 9.67857 
2 *531:8 *900:C2 5.75 
3 *531:8 *843:A 24.8214 
*END

*D_NET *532 0.000476001
*CONN
*I *844:A I *D MUX2_X1
*I *909:A1 I *D AOI22_X1
*I *1004:Q O *D DFF_X1
*CAP
1 *844:A 8.36169e-06
2 *909:A1 1.60674e-05
3 *1004:Q 7.15422e-05
4 *532:10 9.59713e-05
5 *844:A *844:B 2.16072e-07
6 *909:A1 *844:B 1.94663e-05
7 *909:A1 *844:S 1.72405e-05
8 *909:A1 *909:A2 5.62265e-05
9 *532:10 *844:S 5.56527e-05
10 *532:10 *909:A2 0.000126299
11 *532:10 *616:45 5.44193e-06
12 *719:A2 *532:10 3.51536e-06
13 *909:B1 *844:A 0
14 *909:B2 *844:A 0
15 *524:10 *909:A1 0
*RES
1 *1004:Q *532:10 20.2857 
2 *532:10 *909:A1 13.6429 
3 *532:10 *844:A 10.75 
*END

*D_NET *533 0.000436999
*CONN
*I *920:B2 I *D AOI22_X1
*I *845:A I *D MUX2_X1
*I *1005:Q O *D DFF_X1
*CAP
1 *920:B2 0
2 *845:A 2.73972e-05
3 *1005:Q 4.76542e-05
4 *533:8 7.50514e-05
5 *845:A *920:A2 1.20876e-05
6 *845:A *920:B1 6.31548e-07
7 *845:A *607:82 4.80119e-06
8 *845:A *628:52 1.61249e-06
9 *845:A *630:52 0.000106624
10 *533:8 *920:A1 2.99349e-06
11 *533:8 *920:B1 2.39679e-06
12 *533:8 *950:A2 3.14292e-05
13 *191:64 *845:A 0.000118829
14 *223:60 *533:8 5.05929e-06
15 *224:40 *533:8 4.32144e-07
*RES
1 *1005:Q *533:8 10.3571 
2 *533:8 *845:A 22.0357 
3 *533:8 *920:B2 5 
*END

*D_NET *534 0.0008863
*CONN
*I *846:A I *D MUX2_X1
*I *936:B2 I *D AOI22_X1
*I *1006:Q O *D DFF_X1
*CAP
1 *846:A 0.000178997
2 *936:B2 5.55492e-05
3 *1006:Q 0
4 *534:4 0.000234546
5 *846:A *787:S 3.62745e-05
6 *846:A *846:S 2.75346e-06
7 *846:A *1006:CK 1.43538e-06
8 *846:A *602:58 0
9 *846:A *616:45 1.60038e-06
10 *846:A *633:69 1.74693e-06
11 *936:B2 *936:B1 2.39679e-06
12 *936:B2 *937:A1 4.40601e-06
13 *936:B2 *616:45 4.79202e-06
14 *936:B2 *618:16 5.46411e-05
15 *937:A2 *936:B2 3.68589e-05
16 *937:B2 *936:B2 3.90286e-05
17 *938:B1 *846:A 7.30979e-06
18 *938:B2 *936:B2 1.68643e-06
19 *940:A2 *936:B2 2.4467e-05
20 *1006:D *846:A 0.000105041
21 *190:30 *846:A 1.72702e-05
22 *190:30 *936:B2 2.42487e-05
23 *190:40 *846:A 0
24 *190:40 *936:B2 1.72426e-05
25 *258:24 *846:A 3.40082e-05
*RES
1 *1006:Q *534:4 5 
2 *534:4 *936:B2 24.4643 
3 *534:4 *846:A 36.7143 
*END

*D_NET *535 0.000569081
*CONN
*I *949:B2 I *D AOI22_X1
*I *847:A I *D MUX2_X1
*I *1007:Q O *D DFF_X1
*CAP
1 *949:B2 4.53405e-05
2 *847:A 3.82758e-05
3 *1007:Q 6.1043e-05
4 *535:8 0.000144659
5 *847:A *847:S 1.80259e-05
6 *847:A *625:43 0.000106491
7 *847:A *644:15 6.65423e-06
8 *949:B2 *949:A1 3.65322e-06
9 *949:B2 *625:43 6.3642e-05
10 *535:8 *644:15 0
11 *947:A2 *847:A 3.84995e-05
12 *947:A2 *949:B2 2.47059e-05
13 *947:A3 *535:8 9.57492e-07
14 *952:A2 *949:B2 2.97287e-06
15 *181:73 *949:B2 0
16 *181:73 *535:8 0
17 *302:14 *949:B2 1.20756e-05
18 *302:14 *535:8 2.08416e-06
19 *303:12 *535:8 0
*RES
1 *1007:Q *535:8 15.75 
2 *535:8 *847:A 17.4286 
3 *535:8 *949:B2 16.8929 
*END

*D_NET *536 0.000741727
*CONN
*I *710:B2 I *D AOI22_X1
*I *748:A I *D MUX2_X1
*I *1008:Q O *D DFF_X1
*CAP
1 *710:B2 5.23363e-05
2 *748:A 0.000132536
3 *1008:Q 7.51374e-05
4 *536:8 0.00026001
5 *710:B2 *710:B1 2.75346e-06
6 *710:B2 *628:71 4.58915e-05
7 *748:A *619:105 0
8 *748:A *622:63 1.06899e-05
9 *536:8 *622:63 2.64545e-05
10 *536:8 *643:45 0
11 *710:A1 *710:B2 1.47674e-05
12 *719:A2 *748:A 9.67365e-05
13 *1008:D *748:A 1.4515e-05
14 *191:80 *710:B2 0
15 *464:10 *748:A 9.89864e-06
16 *480:10 *536:8 0
*RES
1 *1008:Q *536:8 17.7143 
2 *536:8 *748:A 25.6071 
3 *536:8 *710:B2 16.9286 
*END

*D_NET *537 0.000779886
*CONN
*I *879:A1 I *D AOI22_X1
*I *834:A I *D MUX2_X1
*I *1009:Q O *D DFF_X1
*CAP
1 *879:A1 0.000108315
2 *834:A 6.0192e-05
3 *1009:Q 1.65705e-05
4 *537:10 0.000185077
5 *834:A *834:B 7.16188e-07
6 *879:A1 *827:B 1.87637e-06
7 *537:10 *633:175 1.9871e-06
8 *879:B2 *879:A1 1.25189e-05
9 *883:A1 *834:A 1.03992e-05
10 *883:A1 *879:A1 0.000146546
11 *178:62 *879:A1 2.16072e-07
12 *191:29 *879:A1 2.89018e-05
13 *193:38 *879:A1 2.94435e-05
14 *212:32 *879:A1 2.75544e-05
15 *216:73 *879:A1 4.10189e-05
16 *216:81 *834:A 6.43172e-05
17 *216:81 *879:A1 1.79559e-06
18 *216:98 *834:A 0
19 *270:20 *537:10 4.24402e-05
*RES
1 *1009:Q *537:10 17.2857 
2 *537:10 *834:A 12.8571 
3 *537:10 *879:A1 31.3571 
*END

*D_NET *538 0.000586398
*CONN
*I *887:B2 I *D AOI22_X1
*I *835:A I *D MUX2_X1
*I *1010:Q O *D DFF_X1
*CAP
1 *887:B2 3.47168e-05
2 *835:A 1.53727e-05
3 *1010:Q 8.36146e-05
4 *538:10 0.000133704
5 *835:A *601:65 0
6 *887:B2 *601:59 4.97191e-06
7 *887:B2 *601:65 3.35822e-05
8 *538:10 *758:B 0.000129787
9 *538:10 *1098:CK 6.33941e-05
10 *538:10 *599:236 9.14865e-06
11 *538:10 *649:95 4.24402e-05
12 *538:10 *649:106 0
13 *835:S *887:B2 1.04928e-05
14 *890:A2 *835:A 9.83558e-06
15 *890:A2 *538:10 9.50077e-06
16 *959:D *538:10 2.84003e-06
17 *1010:D *538:10 1.16229e-06
18 *178:115 *887:B2 0
19 *184:104 *538:10 1.83411e-06
20 *246:10 *538:10 0
21 *506:8 *538:10 0
*RES
1 *1010:Q *538:10 22.6429 
2 *538:10 *835:A 11.6071 
3 *538:10 *887:B2 14.75 
*END

*D_NET *539 0.000932799
*CONN
*I *903:A1 I *D AOI222_X1
*I *836:A I *D MUX2_X1
*I *1011:Q O *D DFF_X1
*CAP
1 *903:A1 3.07922e-05
2 *836:A 0.00013129
3 *1011:Q 2.79711e-05
4 *539:8 0.000190054
5 *836:A *815:B 4.24402e-05
6 *836:A *979:CK 3.76527e-05
7 *836:A *1035:CK 1.66988e-05
8 *836:A *630:16 9.78704e-06
9 *836:A *635:10 6.39357e-05
10 *836:A *635:27 7.19036e-06
11 *836:A *635:99 2.59893e-05
12 *836:A *635:108 0.000129157
13 *836:A *635:119 8.78e-05
14 *903:A1 *979:CK 5.29415e-05
15 *539:8 *630:16 5.65173e-06
16 *839:S *836:A 7.72537e-06
17 *905:A2 *903:A1 5.29415e-05
18 *941:A1 *836:A 0
19 *216:24 *836:A 4.47776e-06
20 *216:24 *539:8 8.30233e-06
21 *292:12 *836:A 0
*RES
1 *1011:Q *539:8 12.9643 
2 *539:8 *836:A 30.6786 
3 *539:8 *903:A1 15.25 
*END

*D_NET *540 0.000328073
*CONN
*I *914:A1 I *D AOI22_X1
*I *837:A I *D MUX2_X1
*I *1012:Q O *D DFF_X1
*CAP
1 *914:A1 4.91334e-05
2 *837:A 0
3 *1012:Q 5.35893e-05
4 *540:8 0.000102723
5 *914:A1 *914:B2 1.43238e-06
6 *540:8 *1012:CK 0
7 *1012:D *540:8 0
8 *193:32 *914:A1 3.24839e-05
9 *193:32 *540:8 1.91498e-06
10 *195:44 *914:A1 3.59015e-05
11 *195:44 *540:8 2.35353e-05
12 *202:27 *540:8 2.73593e-05
*RES
1 *1012:Q *540:8 11.5357 
2 *540:8 *837:A 5 
3 *540:8 *914:A1 11.7857 
*END

*D_NET *541 0.000571967
*CONN
*I *925:B2 I *D AOI22_X1
*I *838:A I *D MUX2_X1
*I *1013:Q O *D DFF_X1
*CAP
1 *925:B2 4.19563e-05
2 *838:A 8.99362e-05
3 *1013:Q 0
4 *541:4 0.000131893
5 *838:A *573:8 2.86077e-05
6 *838:A *604:76 3.45614e-05
7 *838:A *604:80 2.96955e-05
8 *838:A *628:88 2.46138e-05
9 *925:B2 *573:8 6.03153e-05
10 *838:S *838:A 7.83346e-05
11 *925:B1 *925:B2 2.75765e-05
12 *928:A2 *925:B2 5.77417e-06
13 *1013:D *838:A 2.72171e-06
14 *191:82 *838:A 1.37423e-05
15 *191:82 *925:B2 2.23871e-06
*RES
1 *1013:Q *541:4 5 
2 *541:4 *838:A 28.0714 
3 *541:4 *925:B2 11.25 
*END

*D_NET *542 0.000732288
*CONN
*I *839:A I *D MUX2_X1
*I *938:A1 I *D AOI22_X1
*I *1014:Q O *D DFF_X1
*CAP
1 *839:A 3.36385e-05
2 *938:A1 0.000132117
3 *1014:Q 4.27261e-05
4 *542:10 0.000208481
5 *839:A *839:B 2.16072e-07
6 *938:A1 *815:A 5.55136e-07
7 *938:A1 *815:B 1.6538e-05
8 *938:A1 *936:B1 1.00571e-05
9 *938:A1 *1035:CK 2.16072e-07
10 *938:A1 *635:35 1.87369e-06
11 *542:10 *618:16 0.000158924
12 *542:10 *635:35 5.11191e-06
13 *815:S *938:A1 9.62051e-07
14 *839:S *839:A 1.10542e-05
15 *839:S *938:A1 1.66756e-05
16 *839:S *542:10 4.19724e-05
17 *938:A2 *938:A1 2.39679e-06
18 *938:B1 *938:A1 3.09143e-06
19 *1014:D *839:A 2.15652e-05
20 *1014:D *938:A1 5.32678e-06
21 *260:18 *938:A1 1.87885e-05
*RES
1 *1014:Q *542:10 23.3929 
2 *542:10 *938:A1 29.7857 
3 *542:10 *839:A 8.75 
*END

*D_NET *543 0.000754375
*CONN
*I *840:A I *D MUX2_X1
*I *951:A1 I *D AOI22_X1
*I *1015:Q O *D DFF_X1
*CAP
1 *840:A 3.56497e-05
2 *951:A1 9.87906e-05
3 *1015:Q 4.10443e-05
4 *543:8 0.000175485
5 *840:A *1063:CK 4.7968e-05
6 *840:A *645:29 4.97191e-06
7 *951:A1 *951:B1 8.35472e-06
8 *543:8 *604:76 0
9 *763:S *951:A1 1.72405e-05
10 *763:S *543:8 0.000144818
11 *770:B *840:A 0
12 *770:B *951:A1 6.51944e-05
13 *919:B1 *951:A1 0
14 *951:A2 *951:A1 2.06237e-05
15 *1015:D *840:A 3.28714e-05
16 *1095:D *840:A 6.82202e-07
17 *1095:D *951:A1 2.26406e-05
18 *199:48 *951:A1 1.36877e-05
19 *199:48 *543:8 2.43524e-05
*RES
1 *1015:Q *543:8 17.7143 
2 *543:8 *951:A1 22.8929 
3 *543:8 *840:A 15.25 
*END

*D_NET *544 0.000668262
*CONN
*I *700:B2 I *D AOI22_X1
*I *724:A I *D MUX2_X1
*I *1016:Q O *D DFF_X1
*CAP
1 *700:B2 9.47767e-05
2 *724:A 2.16904e-05
3 *1016:Q 0.000139297
4 *544:8 0.000255764
5 *700:B2 *686:A 0
6 *724:A *607:165 6.8992e-06
7 *544:8 *734:B 7.00661e-06
8 *544:8 *607:165 2.60567e-06
9 *707:A2 *700:B2 4.90133e-05
10 *707:A4 *724:A 0
11 *917:A1 *700:B2 0
12 *1016:D *544:8 9.12093e-05
13 *195:44 *700:B2 0
*RES
1 *1016:Q *544:8 25.1786 
2 *544:8 *724:A 12.6071 
3 *544:8 *700:B2 20.9286 
*END

*D_NET *545 0.000846441
*CONN
*I *882:B2 I *D AOI22_X1
*I *827:A I *D MUX2_X1
*I *1017:Q O *D DFF_X1
*CAP
1 *882:B2 5.08361e-05
2 *827:A 5.87244e-05
3 *1017:Q 7.157e-05
4 *545:10 0.000181131
5 *827:A *827:B 4.44159e-06
6 *827:A *600:77 7.72792e-06
7 *827:A *621:25 3.37286e-06
8 *882:B2 *600:77 9.2214e-05
9 *882:B1 *882:B2 5.2678e-05
10 *178:62 *827:A 8.43215e-07
11 *178:70 *827:A 5.90251e-06
12 *191:29 *545:10 3.04186e-05
13 *196:20 *827:A 5.62939e-05
14 *196:20 *882:B2 4.17545e-05
15 *208:22 *545:10 0.000188533
*RES
1 *1017:Q *545:10 25.4286 
2 *545:10 *827:A 11.75 
3 *545:10 *882:B2 14.25 
*END

*D_NET *546 0.000668999
*CONN
*I *828:A I *D MUX2_X1
*I *893:A1 I *D AOI22_X1
*I *1018:Q O *D DFF_X1
*CAP
1 *828:A 7.71252e-05
2 *893:A1 3.35019e-05
3 *1018:Q 5.91376e-05
4 *546:8 0.000169765
5 *828:A *1066:CK 2.30024e-06
6 *828:A *601:55 0
7 *546:8 *891:A1 1.72426e-05
8 *786:A *828:A 0
9 *807:S *546:8 3.75707e-05
10 *1018:D *828:A 7.87941e-05
11 *196:95 *893:A1 0.000107166
12 *196:95 *546:8 1.97009e-05
13 *196:103 *893:A1 1.77822e-05
14 *253:12 *828:A 2.75402e-05
15 *253:12 *893:A1 1.93179e-05
16 *253:12 *546:8 2.05543e-06
17 *474:8 *546:8 0
*RES
1 *1018:Q *546:8 17.7143 
2 *546:8 *893:A1 16.3571 
3 *546:8 *828:A 19.75 
*END

*D_NET *547 0.000634787
*CONN
*I *900:B2 I *D AOI222_X1
*I *829:A I *D MUX2_X1
*I *1019:Q O *D DFF_X1
*CAP
1 *900:B2 5.59265e-05
2 *829:A 6.56054e-05
3 *1019:Q 1.76796e-05
4 *547:8 0.000139211
5 *829:A *829:B 2.67716e-05
6 *829:A *1019:CK 2.28343e-05
7 *900:B2 *829:B 1.13395e-05
8 *900:B2 *936:B1 1.21774e-06
9 *900:B2 *602:110 7.34771e-05
10 *900:B2 *628:16 4.6837e-06
11 *900:B2 *632:70 9.38538e-05
12 *1019:D *829:A 1.48912e-05
13 *1019:D *547:8 1.04526e-05
14 *1086:D *829:A 0
15 *190:30 *829:A 4.24381e-05
16 *190:30 *547:8 4.95771e-05
17 *227:73 *547:8 3.6182e-06
18 *232:14 *547:8 1.20936e-06
*RES
1 *1019:Q *547:8 12.9643 
2 *547:8 *829:A 19.0357 
3 *547:8 *900:B2 19.25 
*END

*D_NET *548 0.000929483
*CONN
*I *914:B2 I *D AOI22_X1
*I *830:A I *D MUX2_X1
*I *1020:Q O *D DFF_X1
*CAP
1 *914:B2 7.03901e-05
2 *830:A 0.000113764
3 *1020:Q 4.66286e-05
4 *548:10 0.000230782
5 *830:A *603:111 1.17937e-06
6 *830:A *620:12 5.3922e-05
7 *830:A *620:14 3.54591e-05
8 *830:A *633:240 2.60842e-06
9 *914:B2 *1012:CK 6.03455e-05
10 *548:10 *1012:CK 4.38852e-05
11 *548:10 *620:14 2.40538e-05
12 *830:S *830:A 2.28853e-05
13 *912:A2 *830:A 7.66691e-06
14 *912:A2 *548:10 2.73294e-05
15 *914:A1 *914:B2 1.43238e-06
16 *914:B1 *914:B2 8.43215e-07
17 *1012:D *830:A 1.23222e-05
18 *193:32 *914:B2 1.21838e-05
19 *195:16 *830:A 3.69343e-05
20 *195:44 *914:B2 0
21 *202:27 *548:10 9.17812e-06
22 *274:14 *914:B2 0.000115689
*RES
1 *1020:Q *548:10 16.8571 
2 *548:10 *830:A 24.1786 
3 *548:10 *914:B2 21.25 
*END

*D_NET *549 0.000370711
*CONN
*I *831:A I *D MUX2_X1
*I *922:A1 I *D AOI22_X1
*I *1021:Q O *D DFF_X1
*CAP
1 *831:A 0.00011079
2 *922:A1 5.03375e-05
3 *1021:Q 0
4 *549:4 0.000161128
5 *831:A *604:19 0
6 *831:A *604:36 0
7 *831:A *606:9 3.17922e-05
8 *922:A1 *965:CK 0
9 *922:B2 *922:A1 1.39839e-06
10 *953:A1 *831:A 0
11 *953:A1 *922:A1 0
12 *1021:D *831:A 1.52648e-05
*RES
1 *1021:Q *549:4 5 
2 *549:4 *922:A1 9.75 
3 *549:4 *831:A 27.9643 
*END

*D_NET *550 0.000930075
*CONN
*I *931:A1 I *D AOI22_X1
*I *832:A I *D MUX2_X1
*I *1022:Q O *D DFF_X1
*CAP
1 *931:A1 0.000120079
2 *832:A 0.000106525
3 *1022:Q 0
4 *550:6 0.000226603
5 *832:A *783:B 1.16629e-06
6 *832:A *605:96 3.28688e-05
7 *832:A *605:146 1.04048e-06
8 *832:A *637:25 3.35125e-05
9 *931:A1 *808:A 4.92863e-06
10 *931:A1 *931:B1 8.43215e-07
11 *931:A1 *571:10 2.11828e-05
12 *931:A1 *626:14 2.52965e-06
13 *931:A1 *626:22 0.000115716
14 *931:A1 *637:25 1.14339e-05
15 *780:A *931:A1 1.56073e-06
16 *783:A *832:A 9.62001e-06
17 *900:B1 *832:A 1.18232e-06
18 *935:A1 *931:A1 3.471e-05
19 *1078:D *832:A 7.83768e-05
20 *178:12 *832:A 0
21 *178:12 *931:A1 0
22 *196:28 *832:A 2.37916e-06
23 *196:28 *931:A1 1.36822e-05
24 *223:43 *931:A1 9.00091e-05
25 *225:80 *832:A 1.46547e-05
26 *231:27 *931:A1 3.09411e-06
27 *507:14 *931:A1 2.3767e-06
*RES
1 *1022:Q *550:6 10 
2 *550:6 *832:A 23.5 
3 *550:6 *931:A1 27.9643 
*END

*D_NET *551 0.000477466
*CONN
*I *943:B2 I *D AOI22_X1
*I *833:A I *D MUX2_X1
*I *1023:Q O *D DFF_X1
*CAP
1 *943:B2 2.95743e-05
2 *833:A 0.000123154
3 *1023:Q 0
4 *551:4 0.000152728
5 *833:A *1047:CK 0
6 *833:A *575:8 1.80284e-05
7 *833:A *606:11 1.71706e-05
8 *833:A *606:13 9.52324e-06
9 *833:A *606:145 0
10 *943:B2 *1039:CK 0
11 *943:B2 *1047:CK 0
12 *943:B2 *606:145 6.0887e-06
13 *831:S *833:A 0.000121198
14 *1023:D *833:A 0
15 *181:73 *833:A 0
*RES
1 *1023:Q *551:4 5 
2 *551:4 *833:A 30.6071 
3 *551:4 *943:B2 8.53572 
*END

*D_NET *552 0.000321792
*CONN
*I *703:B2 I *D AOI22_X1
*I *682:A I *D MUX2_X1
*I *1024:Q O *D DFF_X1
*CAP
1 *703:B2 5.26742e-05
2 *682:A 0
3 *1024:Q 7.6521e-05
4 *552:12 0.000129195
5 *703:B2 *682:B 7.72792e-06
6 *703:B2 *740:A 2.39679e-06
7 *703:B2 *607:137 5.43491e-06
8 *552:12 *647:68 8.09419e-06
9 *552:12 *647:79 1.04275e-05
10 *703:B1 *703:B2 7.72537e-06
11 *891:B1 *703:B2 1.06478e-05
12 *891:B1 *552:12 5.43491e-06
13 *1024:D *552:12 0
14 *178:113 *703:B2 8.64288e-07
15 *178:113 *552:12 2.39679e-06
16 *195:44 *703:B2 2.25089e-06
*RES
1 *1024:Q *552:12 22.8929 
2 *552:12 *682:A 5 
3 *552:12 *703:B2 11.3571 
*END

*D_NET *553 0.000668818
*CONN
*I *880:A1 I *D AOI22_X1
*I *820:A I *D MUX2_X1
*I *1025:Q O *D DFF_X1
*CAP
1 *880:A1 7.00964e-05
2 *820:A 5.6387e-05
3 *1025:Q 4.28903e-05
4 *553:10 0.000169374
5 *820:A *997:CK 1.25189e-05
6 *820:A *622:63 0.000114415
7 *820:A *632:36 1.27492e-05
8 *820:A *632:38 5.75004e-07
9 *880:A1 *622:63 5.09411e-05
10 *880:A1 *631:76 1.72405e-05
11 *880:A1 *632:36 4.44127e-06
12 *849:A *880:A1 0
13 *849:A *553:10 0
14 *856:S *880:A1 0
15 *880:B2 *880:A1 3.19164e-07
16 *880:B2 *553:10 5.29373e-05
17 *883:A2 *880:A1 1.4348e-05
18 *883:A2 *553:10 6.48216e-07
19 *883:A4 *553:10 3.29009e-05
20 *206:52 *820:A 9.85725e-07
21 *206:52 *880:A1 1.09659e-05
22 *216:98 *553:10 4.08507e-06
23 *233:48 *820:A 0
*RES
1 *1025:Q *553:10 16.1786 
2 *553:10 *820:A 17.6071 
3 *553:10 *880:A1 28.8214 
*END

*D_NET *554 0.000472505
*CONN
*I *894:A1 I *D AOI22_X1
*I *821:A I *D MUX2_X1
*I *1026:Q O *D DFF_X1
*CAP
1 *894:A1 4.82128e-06
2 *821:A 5.40196e-05
3 *1026:Q 5.59788e-05
4 *554:12 0.00011482
5 *821:A *601:77 1.75124e-05
6 *821:A *601:79 1.45919e-05
7 *894:A1 *894:A2 2.39679e-06
8 *554:12 *894:A2 5.89767e-05
9 *894:B1 *894:A1 3.09143e-06
10 *203:35 *554:12 5.93941e-05
11 *250:12 *821:A 4.52559e-05
12 *255:14 *821:A 1.72405e-05
13 *255:14 *554:12 2.4406e-05
*RES
1 *1026:Q *554:12 18.7857 
2 *554:12 *821:A 17.7143 
3 *554:12 *894:A1 10.75 
*END

*D_NET *555 0.00081041
*CONN
*I *903:C2 I *D AOI222_X1
*I *822:A I *D MUX2_X1
*I *1027:Q O *D DFF_X1
*CAP
1 *903:C2 9.61743e-05
2 *822:A 3.12517e-05
3 *1027:Q 4.27656e-05
4 *555:10 0.000170192
5 *822:A *822:B 2.16072e-07
6 *555:10 *659:A 3.07159e-05
7 *905:A3 *555:10 8.64288e-07
8 *1011:D *903:C2 7.19036e-06
9 *1027:D *903:C2 3.7117e-05
10 *158:14 *555:10 2.11287e-05
11 *190:22 *822:A 8.14241e-05
12 *190:22 *555:10 4.88119e-05
13 *223:35 *822:A 1.28122e-06
14 *223:35 *903:C2 4.06955e-05
15 *224:10 *822:A 3.02296e-05
16 *224:10 *555:10 1.80327e-05
17 *224:29 *822:A 2.39679e-06
18 *292:12 *903:C2 0.000149923
*RES
1 *1027:Q *555:10 16.2143 
2 *555:10 *822:A 15.5714 
3 *555:10 *903:C2 24.75 
*END

*D_NET *556 0.000696254
*CONN
*I *915:A1 I *D AOI22_X1
*I *823:A I *D MUX2_X1
*I *1028:Q O *D DFF_X1
*CAP
1 *915:A1 0
2 *823:A 7.60395e-05
3 *1028:Q 0.000175264
4 *556:14 0.000251303
5 *823:A *717:A2 1.65458e-05
6 *823:A *823:B 8.43215e-07
7 *823:A *620:12 1.43116e-05
8 *830:S *556:14 2.5758e-05
9 *915:B1 *823:A 8.7704e-06
10 *915:B2 *823:A 5.71303e-06
11 *178:105 *556:14 2.33532e-06
12 *181:90 *556:14 0
13 *199:12 *556:14 7.41034e-05
14 *212:18 *823:A 0
15 *234:33 *823:A 8.44607e-06
16 *234:33 *556:14 8.9988e-06
17 *274:14 *823:A 6.85596e-06
18 *274:14 *556:14 2.09665e-05
*RES
1 *1028:Q *556:14 29.3129 
2 *556:14 *823:A 19.25 
3 *556:14 *915:A1 10 
*END

*D_NET *557 0.00068659
*CONN
*I *824:A I *D MUX2_X1
*I *920:A1 I *D AOI22_X1
*I *1029:Q O *D DFF_X1
*CAP
1 *824:A 6.29092e-05
2 *920:A1 8.40828e-05
3 *1029:Q 0
4 *557:4 0.000146992
5 *824:A *845:B 4.10452e-05
6 *824:A *559:8 0
7 *824:A *632:56 2.27826e-05
8 *920:A1 *950:A2 2.55787e-06
9 *920:A1 *633:281 1.39047e-05
10 *920:A1 *643:70 4.16485e-05
11 *852:A *824:A 1.29084e-05
12 *923:A2 *824:A 3.49157e-05
13 *923:A2 *920:A1 6.78641e-05
14 *223:60 *920:A1 1.19839e-05
15 *223:83 *920:A1 3.78407e-05
16 *233:48 *824:A 3.76691e-05
17 *233:48 *920:A1 6.44913e-05
18 *533:8 *920:A1 2.99349e-06
*RES
1 *1029:Q *557:4 5 
2 *557:4 *920:A1 28.2857 
3 *557:4 *824:A 24.4286 
*END

*D_NET *558 0.000512035
*CONN
*I *825:A I *D MUX2_X1
*I *932:A1 I *D AOI22_X1
*I *1030:Q O *D DFF_X1
*CAP
1 *825:A 3.07633e-05
2 *932:A1 3.25314e-05
3 *1030:Q 6.28163e-05
4 *558:8 0.000126111
5 *825:A *825:B 7.16188e-07
6 *932:A1 *825:B 0
7 *932:A1 *623:10 1.36877e-05
8 *932:A1 *630:39 5.54369e-05
9 *932:A1 *630:52 3.09143e-06
10 *558:8 *623:10 3.58235e-05
11 *558:8 *630:39 8.81362e-05
12 *1030:D *825:A 0
13 *181:29 *825:A 0
14 *224:29 *825:A 3.83825e-05
15 *270:20 *932:A1 5.39659e-06
16 *270:20 *558:8 1.72272e-05
17 *291:14 *932:A1 1.91498e-06
*RES
1 *1030:Q *558:8 19.75 
2 *558:8 *932:A1 15.0714 
3 *558:8 *825:A 13.75 
*END

*D_NET *559 0.000683543
*CONN
*I *950:A1 I *D AOI22_X1
*I *826:A I *D MUX2_X1
*I *1031:Q O *D DFF_X1
*CAP
1 *950:A1 8.97782e-05
2 *826:A 0.000129622
3 *1031:Q 1.5175e-05
4 *559:8 0.000234575
5 *826:A *826:B 9.30692e-06
6 *826:A *1208:A 0
7 *826:A *629:48 0
8 *826:A *643:35 0
9 *950:A1 *950:A2 0.00012214
10 *950:A1 *1031:CK 0
11 *559:8 *845:B 0
12 *798:A *826:A 3.6898e-05
13 *798:A *950:A1 4.16737e-06
14 *824:A *559:8 0
15 *826:S *826:A 2.75346e-06
16 *950:B2 *950:A1 1.45059e-05
17 *190:97 *826:A 9.3409e-06
18 *199:48 *950:A1 2.52965e-06
19 *214:14 *826:A 8.57169e-06
20 *214:14 *559:8 4.17885e-06
*RES
1 *1031:Q *559:8 11.6071 
2 *559:8 *826:A 26.0357 
3 *559:8 *950:A1 22.25 
*END

*D_NET *560 0.000349196
*CONN
*I *706:A1 I *D AOI22_X1
*I *736:A I *D MUX2_X1
*I *1032:Q O *D DFF_X1
*CAP
1 *706:A1 5.17329e-06
2 *736:A 8.81167e-05
3 *1032:Q 4.10835e-05
4 *560:10 0.000134374
5 *706:A1 *631:55 7.72537e-06
6 *736:A *607:99 0
7 *736:A *607:112 3.44472e-06
8 *736:A *647:27 0
9 *560:10 *607:112 1.23214e-06
10 *560:10 *631:55 3.90865e-05
11 *560:10 *631:66 2.39679e-06
12 *706:B1 *706:A1 8.43215e-07
13 *706:B1 *736:A 8.64488e-06
14 *706:B2 *706:A1 1.18232e-06
15 *707:A4 *736:A 0
16 *707:A4 *560:10 0
17 *203:29 *560:10 1.58933e-05
18 *224:57 *736:A 0
19 *226:61 *736:A 0
*RES
1 *1032:Q *560:10 15.3571 
2 *560:10 *736:A 17.7143 
3 *560:10 *706:A1 10.75 
*END

*D_NET *561 0.000465079
*CONN
*I *813:A I *D MUX2_X1
*I *882:A1 I *D AOI22_X1
*I *1033:Q O *D DFF_X1
*CAP
1 *813:A 0
2 *882:A1 2.82031e-05
3 *1033:Q 8.13237e-05
4 *561:10 0.000109527
5 *882:A1 *600:77 3.19164e-07
6 *882:A1 *621:25 8.43215e-07
7 *882:A1 *632:26 4.94283e-05
8 *882:A1 *632:36 1.58475e-05
9 *561:10 *623:10 1.53526e-05
10 *561:10 *632:26 2.94435e-05
11 *882:B1 *882:A1 1.21774e-06
12 *206:42 *561:10 4.38826e-05
13 *209:21 *561:10 1.75824e-05
14 *270:20 *882:A1 2.33933e-05
15 *270:20 *561:10 4.87154e-05
*RES
1 *1033:Q *561:10 21.9643 
2 *561:10 *882:A1 14.3929 
3 *561:10 *813:A 10 
*END

*D_NET *562 0.000543932
*CONN
*I *891:B2 I *D AOI22_X1
*I *814:A I *D MUX2_X1
*I *1034:Q O *D DFF_X1
*CAP
1 *891:B2 3.29768e-05
2 *814:A 1.36191e-05
3 *1034:Q 0.00011356
4 *562:8 0.000160156
5 *814:A *814:S 4.7181e-06
6 *814:A *601:57 4.32144e-07
7 *814:A *649:121 3.36516e-07
8 *891:B2 *601:57 1.6362e-05
9 *562:8 *1042:CK 6.03486e-06
10 *562:8 *649:121 9.13084e-06
11 *562:8 *649:141 1.20697e-05
12 *875:A2 *814:A 1.60077e-05
13 *875:A2 *562:8 4.96057e-05
14 *891:B1 *891:B2 2.75346e-06
15 *895:A1 *814:A 3.65322e-06
16 *895:A1 *891:B2 8.34424e-06
17 *1034:D *562:8 9.41709e-05
*RES
1 *1034:Q *562:8 25.8571 
2 *562:8 *814:A 11.6786 
3 *562:8 *891:B2 14.25 
*END

*D_NET *563 0.000596864
*CONN
*I *900:A1 I *D AOI222_X1
*I *815:A I *D MUX2_X1
*I *1035:Q O *D DFF_X1
*CAP
1 *900:A1 2.51629e-05
2 *815:A 5.12741e-05
3 *1035:Q 0.00011369
4 *563:12 0.000190127
5 *815:A *936:B1 2.70364e-05
6 *815:A *633:63 2.03604e-05
7 *900:A1 *936:B1 3.19164e-07
8 *900:A1 *632:70 2.16072e-07
9 *563:12 *815:B 0
10 *563:12 *1035:CK 1.56073e-06
11 *563:12 *602:118 2.34846e-05
12 *563:12 *629:20 0
13 *563:12 *633:63 2.41836e-05
14 *563:12 *635:8 1.26075e-05
15 *815:S *815:A 2.51793e-05
16 *938:A1 *815:A 5.55136e-07
17 *1035:D *900:A1 2.74605e-05
18 *216:24 *563:12 1.7644e-05
19 *260:18 *815:A 2.89018e-05
20 *260:18 *900:A1 7.10056e-06
*RES
1 *1035:Q *563:12 23.5357 
2 *563:12 *815:A 16.3929 
3 *563:12 *900:A1 13.1786 
*END

*D_NET *564 0.000394653
*CONN
*I *912:B2 I *D AOI22_X1
*I *816:A I *D MUX2_X1
*I *1036:Q O *D DFF_X1
*CAP
1 *912:B2 0
2 *816:A 3.89036e-05
3 *1036:Q 7.68508e-05
4 *564:10 0.000115754
5 *564:10 *912:A1 4.79202e-06
6 *912:A2 *816:A 0.000107163
7 *912:A2 *564:10 5.1189e-05
8 *912:B1 *816:A 0
9 *912:B1 *564:10 0
*RES
1 *1036:Q *564:10 18.75 
2 *564:10 *816:A 15.6786 
3 *564:10 *912:B2 10 
*END

*D_NET *565 0.000733351
*CONN
*I *817:A I *D MUX2_X1
*I *921:A1 I *D AOI22_X1
*I *1037:Q O *D DFF_X1
*CAP
1 *817:A 5.1579e-05
2 *921:A1 9.64627e-05
3 *1037:Q 5.65421e-05
4 *565:10 0.000204584
5 *817:A *621:48 5.055e-05
6 *817:A *621:61 2.39679e-06
7 *921:A1 *921:A2 2.75346e-06
8 *921:A1 *997:CK 5.99828e-06
9 *565:10 *621:48 3.99211e-05
10 *921:B2 *921:A1 1.81088e-05
11 *923:A2 *817:A 0
12 *923:A2 *921:A1 0
13 *923:A3 *817:A 3.53635e-05
14 *923:A3 *921:A1 0.000102519
15 *1037:D *565:10 2.83151e-05
16 *205:75 *565:10 2.50612e-05
17 *206:56 *921:A1 8.31687e-06
18 *206:62 *921:A1 2.24822e-06
19 *233:48 *921:A1 0
20 *525:10 *921:A1 2.63106e-06
*RES
1 *1037:Q *565:10 22.7143 
2 *565:10 *921:A1 27.1071 
3 *565:10 *817:A 12.4286 
*END

*D_NET *566 0.00108697
*CONN
*I *934:B2 I *D AOI22_X1
*I *818:A I *D MUX2_X1
*I *1038:Q O *D DFF_X1
*CAP
1 *934:B2 8.51645e-05
2 *818:A 0.000128688
3 *1038:Q 8.39391e-06
4 *566:6 0.000222247
5 *818:A *574:8 1.10223e-05
6 *818:A *605:111 5.98684e-05
7 *934:B2 *811:A 2.51151e-05
8 *934:B2 *934:A1 0
9 *934:B2 *605:111 1.28122e-06
10 *934:B2 *632:64 1.19839e-05
11 *566:6 *574:8 6.38328e-07
12 *933:A2 *818:A 7.0096e-06
13 *1046:D *818:A 0
14 *190:97 *934:B2 6.71372e-05
15 *211:44 *818:A 1.50816e-05
16 *212:36 *818:A 0.000242446
17 *270:18 *818:A 0.000155688
18 *270:18 *934:B2 0
19 *290:12 *818:A 3.83603e-05
20 *291:14 *818:A 6.84742e-06
*RES
1 *1038:Q *566:6 5.92857 
2 *566:6 *818:A 37.6429 
3 *566:6 *934:B2 25.3929 
*END

*D_NET *567 0.000730317
*CONN
*I *948:B2 I *D AOI22_X1
*I *819:A I *D MUX2_X1
*I *1039:Q O *D DFF_X1
*CAP
1 *948:B2 5.51135e-05
2 *819:A 3.95251e-05
3 *1039:Q 3.91817e-05
4 *567:8 0.00013382
5 *819:A *819:S 0.000145358
6 *948:B2 *819:S 0.000203177
7 *948:B2 *625:43 3.47242e-06
8 *567:8 *606:145 0
9 *567:8 *606:166 0
10 *948:A1 *948:B2 4.24423e-05
11 *952:A1 *948:B2 1.59384e-05
12 *952:A2 *819:A 1.65298e-05
13 *952:A2 *948:B2 1.30494e-05
14 *952:A4 *567:8 6.92051e-06
15 *1039:D *819:A 1.33919e-05
16 *1103:D *567:8 2.39679e-06
*RES
1 *1039:Q *567:8 13.75 
2 *567:8 *819:A 17.7143 
3 *567:8 *948:B2 21.1071 
*END

*D_NET *568 0.000800545
*CONN
*I *746:A I *D MUX2_X1
*I *703:A1 I *D AOI22_X1
*I *1040:Q O *D DFF_X1
*CAP
1 *746:A 6.59522e-05
2 *703:A1 5.18667e-05
3 *1040:Q 0.000150799
4 *568:10 0.000268618
5 *746:A *746:B 7.66204e-06
6 *568:10 *746:B 5.19516e-05
7 *568:10 *623:35 0
8 *698:A2 *703:A1 3.0727e-06
9 *703:A2 *703:A1 2.4921e-05
10 *721:A1 *568:10 0
11 *721:A2 *703:A1 2.13715e-05
12 *721:A2 *746:A 2.44202e-05
13 *721:A3 *746:A 1.25189e-05
14 *835:S *703:A1 2.68654e-05
15 *835:S *746:A 7.44372e-05
16 *891:B1 *703:A1 1.63684e-06
17 *178:113 *703:A1 8.4128e-08
18 *178:113 *568:10 8.86023e-06
19 *195:44 *703:A1 5.50692e-06
*RES
1 *1040:Q *568:10 29.5 
2 *568:10 *703:A1 21.3571 
3 *568:10 *746:A 15.25 
*END

*D_NET *569 0.000669102
*CONN
*I *806:A I *D MUX2_X1
*I *875:A1 I *D AOI22_X1
*I *1041:Q O *D DFF_X1
*CAP
1 *806:A 6.08134e-05
2 *875:A1 9.8603e-05
3 *1041:Q 6.29997e-05
4 *569:10 0.000222416
5 *806:A *806:B 9.01242e-06
6 *875:A1 *806:B 0
7 *875:A1 *1001:CK 6.44862e-05
8 *875:A1 *600:185 0
9 *875:A1 *600:200 0
10 *806:S *569:10 0
11 *875:B2 *875:A1 1.18232e-06
12 *892:A1 *875:A1 0
13 *892:A2 *875:A1 3.65709e-05
14 *892:A2 *569:10 1.52083e-06
15 *892:B1 *875:A1 0
16 *1041:D *806:A 7.72792e-06
17 *1041:D *569:10 6.76399e-05
18 *253:12 *569:10 3.61289e-05
*RES
1 *1041:Q *569:10 24.0714 
2 *569:10 *875:A1 17.3571 
3 *569:10 *806:A 11.9286 
*END

*D_NET *570 0.000718974
*CONN
*I *807:A I *D MUX2_X1
*I *891:A1 I *D AOI22_X1
*I *1042:Q O *D DFF_X1
*CAP
1 *807:A 0
2 *891:A1 9.50201e-05
3 *1042:Q 0.000140122
4 *570:10 0.000235143
5 *891:A1 *601:55 6.02276e-05
6 *891:A1 *601:57 4.37043e-05
7 *891:A1 *649:141 0
8 *570:10 *1042:CK 0
9 *570:10 *649:141 0
10 *807:S *891:A1 8.14262e-05
11 *875:A2 *891:A1 3.35796e-05
12 *178:115 *891:A1 1.2509e-05
13 *546:8 *891:A1 1.72426e-05
*RES
1 *1042:Q *570:10 24.1786 
2 *570:10 *891:A1 24.75 
3 *570:10 *807:A 10 
*END

*D_NET *571 0.000718724
*CONN
*I *904:B2 I *D AOI222_X1
*I *808:A I *D MUX2_X1
*I *1043:Q O *D DFF_X1
*CAP
1 *904:B2 2.29216e-05
2 *808:A 0.000119215
3 *1043:Q 8.93493e-05
4 *571:10 0.000231486
5 *904:B2 *759:B 7.87971e-06
6 *904:B2 *626:22 1.68643e-06
7 *808:S *808:A 1.71805e-05
8 *904:A2 *904:B2 2.39679e-06
9 *904:B1 *904:B2 2.39679e-06
10 *904:C2 *808:A 4.84924e-06
11 *905:A3 *808:A 0.000125015
12 *905:A3 *904:B2 1.91375e-05
13 *931:A1 *808:A 4.92863e-06
14 *931:A1 *571:10 2.11828e-05
15 *178:12 *808:A 4.17885e-06
16 *178:12 *571:10 2.27157e-05
17 *178:62 *571:10 0
18 *181:29 *808:A 5.6007e-06
19 *225:12 *571:10 2.1327e-06
20 *507:14 *571:10 1.44707e-05
*RES
1 *1043:Q *571:10 20.3214 
2 *571:10 *808:A 25.0357 
3 *571:10 *904:B2 12.75 
*END

*D_NET *572 0.000545271
*CONN
*I *912:A1 I *D AOI22_X1
*I *809:A I *D MUX2_X1
*I *1044:Q O *D DFF_X1
*CAP
1 *912:A1 3.94671e-05
2 *809:A 0.000132676
3 *1044:Q 7.79352e-05
4 *572:12 0.000250078
5 *809:A *699:A4 0
6 *809:A *816:S 5.17958e-06
7 *912:A1 *1036:CK 5.11574e-06
8 *572:12 *962:RN 0
9 *702:A3 *809:A 3.00272e-05
10 *912:A2 *809:A 0
11 *271:18 *809:A 0
12 *564:10 *912:A1 4.79202e-06
*RES
1 *1044:Q *572:12 22.8929 
2 *572:12 *809:A 28.8214 
3 *572:12 *912:A1 9.25 
*END

*D_NET *573 0.000483688
*CONN
*I *925:A1 I *D AOI22_X1
*I *810:A I *D MUX2_X1
*I *1045:Q O *D DFF_X1
*CAP
1 *925:A1 3.86313e-05
2 *810:A 4.62147e-05
3 *1045:Q 5.06184e-05
4 *573:8 0.000135464
5 *810:A *616:68 0
6 *810:A *644:151 1.52083e-06
7 *573:8 *628:88 8.82071e-05
8 *838:A *573:8 2.86077e-05
9 *925:B1 *925:A1 3.09143e-06
10 *925:B2 *573:8 6.03153e-05
11 *943:A2 *925:A1 4.97191e-06
12 *949:A2 *810:A 0
13 *949:A2 *925:A1 0
14 *191:82 *925:A1 2.75346e-06
15 *226:110 *810:A 1.67264e-05
16 *226:110 *925:A1 6.56549e-06
*RES
1 *1045:Q *573:8 18.75 
2 *573:8 *810:A 15 
3 *573:8 *925:A1 13.7143 
*END

*D_NET *574 0.00101918
*CONN
*I *934:A1 I *D AOI22_X1
*I *811:A I *D MUX2_X1
*I *1046:Q O *D DFF_X1
*CAP
1 *934:A1 6.9321e-05
2 *811:A 0.000100693
3 *1046:Q 3.33234e-05
4 *574:8 0.000203338
5 *811:A *811:B 5.56848e-05
6 *811:A *825:B 3.76189e-05
7 *811:A *909:A2 3.81836e-05
8 *811:A *605:113 0.000188593
9 *934:A1 *605:111 4.32144e-07
10 *934:A1 *607:80 5.48594e-05
11 *934:A1 *632:56 5.5649e-05
12 *574:8 *860:B 0
13 *574:8 *605:111 1.86809e-06
14 *811:S *811:A 1.20872e-05
15 *818:A *574:8 1.10223e-05
16 *934:A2 *934:A1 6.48216e-07
17 *934:B2 *811:A 2.51151e-05
18 *934:B2 *934:A1 0
19 *1038:D *811:A 4.26902e-05
20 *1046:D *811:A 1.61002e-06
21 *291:14 *934:A1 4.67145e-05
22 *291:14 *574:8 3.90865e-05
23 *566:6 *574:8 6.38328e-07
*RES
1 *1046:Q *574:8 9.67857 
2 *574:8 *811:A 32.2143 
3 *574:8 *934:A1 24.2143 
*END

*D_NET *575 0.000750461
*CONN
*I *943:A1 I *D AOI22_X1
*I *812:A I *D MUX2_X1
*I *1047:Q O *D DFF_X1
*CAP
1 *943:A1 6.70544e-05
2 *812:A 0.000117606
3 *1047:Q 1.30934e-05
4 *575:8 0.000197754
5 *812:A *812:B 7.16188e-07
6 *943:A1 *775:B 0
7 *943:A1 *606:145 6.59103e-05
8 *575:8 *606:145 2.23871e-06
9 *775:S *943:A1 1.88906e-05
10 *831:S *812:A 7.07586e-06
11 *831:S *943:A1 3.4958e-06
12 *833:A *575:8 1.80284e-05
13 *953:A3 *943:A1 0
14 *1047:D *812:A 0
15 *181:73 *812:A 0.000146829
16 *303:12 *812:A 6.8173e-05
17 *303:12 *943:A1 2.35942e-05
18 *479:10 *812:A 0
*RES
1 *1047:Q *575:8 11.75 
2 *575:8 *812:A 26.8929 
3 *575:8 *943:A1 19.8929 
*END

*D_NET *576 0.0008054
*CONN
*I *698:B2 I *D AOI22_X1
*I *686:A I *D MUX2_X1
*I *1048:Q O *D DFF_X1
*CAP
1 *698:B2 8.40031e-05
2 *686:A 0.000118442
3 *1048:Q 8.39391e-06
4 *576:6 0.000210839
5 *686:A *623:10 2.42139e-06
6 *698:A2 *698:B2 1.93245e-05
7 *700:B2 *686:A 0
8 *707:A1 *686:A 0
9 *707:A2 *686:A 0
10 *707:A3 *686:A 0
11 *707:A3 *698:B2 4.47212e-05
12 *707:A3 *576:6 6.38328e-07
13 *721:A2 *698:B2 2.84174e-05
14 *916:A4 *686:A 8.74148e-06
15 *1048:D *686:A 4.77419e-05
16 *191:121 *698:B2 9.2413e-05
17 *195:44 *686:A 6.28148e-05
18 *195:44 *698:B2 6.62888e-05
19 *202:48 *686:A 1.01994e-05
*RES
1 *1048:Q *576:6 5.92857 
2 *576:6 *686:A 29.2857 
3 *576:6 *698:B2 28.1429 
*END

*D_NET *577 0.000612129
*CONN
*I *876:A1 I *D AOI22_X1
*I *799:A I *D MUX2_X1
*I *1049:Q O *D DFF_X1
*CAP
1 *876:A1 0
2 *799:A 0.000107065
3 *1049:Q 5.61707e-05
4 *577:12 0.000163236
5 *799:A *1065:CK 4.26343e-05
6 *799:A *599:238 3.34324e-06
7 *577:12 *599:238 3.04116e-06
8 *785:A *799:A 2.87087e-05
9 *799:S *799:A 4.31668e-05
10 *875:A2 *799:A 9.26213e-06
11 *875:A2 *577:12 1.59966e-06
12 *876:A2 *577:12 3.30857e-05
13 *876:B1 *799:A 1.92704e-05
14 *878:A3 *577:12 4.64418e-06
15 *893:B1 *799:A 7.62012e-05
16 *895:A4 *577:12 6.82202e-07
17 *896:A2 *577:12 0
18 *896:A3 *577:12 2.00179e-05
*RES
1 *1049:Q *577:12 17.2857 
2 *577:12 *799:A 24.6786 
3 *577:12 *876:A1 10 
*END

*D_NET *578 0.000699514
*CONN
*I *888:A1 I *D AOI22_X1
*I *800:A I *D MUX2_X1
*I *1050:Q O *D DFF_X1
*CAP
1 *888:A1 0.000117739
2 *800:A 1.9912e-06
3 *1050:Q 8.04447e-05
4 *578:10 0.000200175
5 *888:A1 *601:71 0
6 *888:A1 *649:25 9.22938e-05
7 *888:A1 *649:27 4.49583e-06
8 *888:A1 *649:44 5.95537e-07
9 *578:10 *601:65 0
10 *578:10 *601:71 0
11 *800:S *888:A1 1.3229e-05
12 *874:A2 *888:A1 3.09143e-06
13 *876:A2 *888:A1 4.97191e-06
14 *890:A1 *578:10 3.85541e-05
15 *890:A2 *578:10 1.70653e-05
16 *890:A4 *800:A 3.08158e-06
17 *890:A4 *578:10 6.48738e-06
18 *891:B1 *578:10 3.85541e-05
19 *181:119 *888:A1 1.04526e-05
20 *190:165 *888:A1 4.44177e-05
21 *199:116 *888:A1 1.75851e-05
22 *226:86 *800:A 1.56567e-06
23 *246:10 *888:A1 0
24 *246:10 *578:10 0
25 *466:10 *888:A1 2.72417e-06
*RES
1 *1050:Q *578:10 18.75 
2 *578:10 *800:A 10.3214 
3 *578:10 *888:A1 25.1429 
*END

*D_NET *579 0.000348947
*CONN
*I *898:A1 I *D AOI222_X1
*I *801:A I *D MUX2_X1
*I *1051:Q O *D DFF_X1
*CAP
1 *898:A1 6.76674e-05
2 *801:A 7.73345e-05
3 *1051:Q 2.49663e-05
4 *579:8 0.000169968
5 *898:A1 *867:B 0
6 *898:A1 *1051:CK 0
7 *898:A1 *634:54 0
8 *867:A *898:A1 0
9 *982:D *898:A1 0
10 *982:D *579:8 0
11 *1051:D *801:A 0
12 *1051:D *898:A1 0
13 *258:24 *801:A 0
14 *258:24 *898:A1 9.01091e-06
*RES
1 *1051:Q *579:8 8.03572 
2 *579:8 *801:A 12.6429 
3 *579:8 *898:A1 12.6786 
*END

*D_NET *580 0.000820385
*CONN
*I *802:A I *D MUX2_X1
*I *910:A1 I *D AOI22_X1
*I *1052:Q O *D DFF_X1
*CAP
1 *802:A 4.18732e-05
2 *910:A1 0.000107809
3 *1052:Q 3.60702e-05
4 *580:8 0.000185753
5 *802:A *802:B 1.70217e-05
6 *910:A1 *802:B 2.05585e-05
7 *910:A1 *626:37 3.37286e-06
8 *580:8 *802:B 9.93367e-06
9 *907:A1 *910:A1 3.30047e-06
10 *911:A1 *802:A 0
11 *911:A1 *910:A1 4.72636e-05
12 *1052:D *802:A 2.68269e-05
13 *222:18 *910:A1 6.48968e-05
14 *222:18 *580:8 0.000140856
15 *225:80 *580:8 2.59296e-05
16 *500:26 *910:A1 8.89188e-05
*RES
1 *1052:Q *580:8 17.7143 
2 *580:8 *910:A1 25.3929 
3 *580:8 *802:A 14.75 
*END

*D_NET *581 0.000847876
*CONN
*I *803:A I *D MUX2_X1
*I *919:B2 I *D AOI22_X1
*I *1053:Q O *D DFF_X1
*CAP
1 *803:A 6.16468e-05
2 *919:B2 6.19023e-05
3 *1053:Q 7.48242e-05
4 *581:10 0.000198373
5 *803:A *604:36 2.16072e-07
6 *803:A *621:61 7.75869e-05
7 *919:B2 *645:116 1.90574e-06
8 *581:10 *1101:CK 1.85421e-06
9 *581:10 *600:29 1.39047e-05
10 *581:10 *627:43 4.34409e-05
11 *581:10 *633:320 5.51373e-06
12 *757:S *581:10 0
13 *803:S *803:A 1.28987e-05
14 *929:A2 *803:A 4.32144e-07
15 *929:A3 *919:B2 6.54288e-06
16 *952:A3 *919:B2 0
17 *1053:D *803:A 1.74934e-05
18 *1053:D *919:B2 6.25497e-06
19 *1053:D *581:10 1.62713e-05
20 *188:94 *919:B2 1.28122e-06
21 *193:111 *919:B2 0.000119316
22 *193:111 *581:10 7.29628e-06
23 *226:106 *803:A 8.97622e-06
24 *226:110 *919:B2 9.33792e-05
25 *232:138 *581:10 1.65649e-05
*RES
1 *1053:Q *581:10 19.4643 
2 *581:10 *919:B2 19.5357 
3 *581:10 *803:A 18.25 
*END

*D_NET *582 0.000605812
*CONN
*I *937:A1 I *D AOI22_X1
*I *804:A I *D MUX2_X1
*I *1054:Q O *D DFF_X1
*CAP
1 *937:A1 0.000117467
2 *804:A 6.64072e-05
3 *1054:Q 0
4 *582:4 0.000183874
5 *804:A *982:CK 0
6 *804:A *605:13 7.16188e-07
7 *804:A *605:21 0
8 *937:A1 *936:A2 5.81102e-06
9 *937:A1 *936:B1 1.26998e-05
10 *937:A1 *1070:CK 1.09659e-05
11 *937:A1 *605:25 2.0679e-05
12 *797:A *937:A1 5.41924e-05
13 *797:S *804:A 2.08416e-06
14 *797:S *937:A1 5.91644e-05
15 *936:B2 *937:A1 4.40601e-06
16 *937:B2 *937:A1 1.6581e-06
17 *938:B2 *937:A1 2.31688e-05
18 *940:A2 *937:A1 2.39345e-05
19 *940:A3 *937:A1 1.02705e-05
20 *462:6 *804:A 8.31194e-06
*RES
1 *1054:Q *582:4 5 
2 *582:4 *804:A 11.75 
3 *582:4 *937:A1 31.2143 
*END

*D_NET *583 0.000462284
*CONN
*I *949:A1 I *D AOI22_X1
*I *805:A I *D MUX2_X1
*I *1055:Q O *D DFF_X1
*CAP
1 *949:A1 5.82547e-05
2 *805:A 9.30919e-05
3 *1055:Q 0
4 *583:6 0.000151347
5 *805:A *847:S 4.38826e-05
6 *805:A *944:A2 2.14856e-06
7 *805:A *606:48 1.54476e-05
8 *805:A *616:68 5.76624e-05
9 *805:A *633:137 0
10 *949:A1 *616:68 2.57883e-05
11 *949:A1 *644:151 0
12 *805:S *805:A 2.75346e-06
13 *949:A2 *949:A1 4.77786e-06
14 *949:B2 *949:A1 3.65322e-06
15 *181:73 *949:A1 1.87166e-06
16 *302:14 *949:A1 1.60494e-06
*RES
1 *1055:Q *583:6 10 
2 *583:6 *805:A 22.6429 
3 *583:6 *949:A1 16.8214 
*END

*D_NET *584 0.000846727
*CONN
*I *698:A1 I *D AOI22_X1
*I *740:A I *D MUX2_X1
*I *1056:Q O *D DFF_X1
*CAP
1 *698:A1 8.22692e-05
2 *740:A 0.00018163
3 *1056:Q 1.9516e-05
4 *584:6 0.000283416
5 *698:A1 *734:B 5.44593e-06
6 *698:A1 *758:S 1.43238e-06
7 *698:A1 *607:165 3.06052e-05
8 *740:A *607:112 6.4401e-06
9 *740:A *607:118 0
10 *740:A *607:137 7.87454e-06
11 *740:A *607:165 0
12 *740:A *647:68 0
13 *584:6 *686:B 2.23415e-06
14 *584:6 *607:137 1.60038e-06
15 *698:A2 *698:A1 7.24766e-06
16 *698:A2 *740:A 8.89598e-07
17 *703:B2 *740:A 2.39679e-06
18 *707:A1 *698:A1 2.73644e-05
19 *721:A2 *698:A1 3.22565e-07
20 *1024:D *740:A 0
21 *178:113 *740:A 0
22 *191:121 *698:A1 0.000132916
23 *191:121 *740:A 6.25834e-07
24 *191:142 *698:A1 7.72537e-06
25 *195:44 *740:A 9.08e-06
26 *195:44 *584:6 2.90423e-05
27 *226:82 *740:A 6.65268e-06
*RES
1 *1056:Q *584:6 7.75 
2 *584:6 *740:A 32.8214 
3 *584:6 *698:A1 26.5357 
*END

*D_NET *585 0.000946572
*CONN
*P rd_data[0] O
*I *661:A I *D INV_X1
*I *959:Q O *D DFFR_X1
*CAP
1 rd_data[0] 0.00025271
2 *661:A 7.41113e-05
3 *959:Q 0
4 *585:6 0.000326822
5 rd_data[0] rd_data[1] 0.000285729
6 *661:A *586:12 0
7 *885:A *661:A 2.08416e-06
8 *885:B2 *661:A 0
9 *184:104 *661:A 5.11574e-06
10 *506:8 *661:A 0
*RES
1 *959:Q *585:6 10 
2 *585:6 *661:A 17.7143 
3 *585:6 rd_data[0] 38.6072 
*END

*D_NET *586 0.00117946
*CONN
*P rd_data[1] O
*I *662:A I *D INV_X1
*I *960:Q O *D DFFR_X1
*CAP
1 rd_data[1] 0.000247936
2 *662:A 5.82159e-05
3 *960:Q 5.03615e-05
4 *586:12 0.00032919
5 *586:8 0.000189832
6 *662:A *599:236 9.57492e-07
7 rd_data[0] rd_data[1] 0.000285729
8 *661:A *586:12 0
9 *885:B2 *662:A 0
10 *897:B2 *662:A 1.72426e-05
11 *184:115 *586:12 0
*RES
1 *960:Q *586:8 10.1786 
2 *586:8 *586:12 12.75 
3 *586:12 rd_data[1] 37.9286 
4 *586:8 *662:A 21.4286 
*END

*D_NET *587 0.00111034
*CONN
*P rd_data[2] O
*I *906:A I *D MUX2_X1
*I *961:Q O *D DFFR_X1
*CAP
1 rd_data[2] 0.000339206
2 *906:A 9.41193e-05
3 *961:Q 0.000138933
4 *587:26 0.00038402
5 *906:A *961:RN 8.27554e-05
6 *587:26 *599:66 0
7 *587:26 *599:75 0
8 *906:B *906:A 1.21479e-05
9 *961:D *906:A 0
10 *183:10 *906:A 3.53415e-05
11 *183:23 *906:A 6.62783e-06
12 *184:8 *906:A 1.7184e-05
*RES
1 *961:Q *906:A 33.5 
2 *961:Q *587:26 14.25 
3 *587:26 rd_data[2] 38.6072 
*END

*D_NET *588 0.000898939
*CONN
*P rd_data[3] O
*I *663:A I *D INV_X1
*I *962:Q O *D DFFR_X1
*CAP
1 rd_data[3] 0.000359224
2 *663:A 4.20224e-05
3 *962:Q 3.89491e-05
4 *588:6 0.000440195
5 rd_data[3] *599:211 0
6 *588:6 *599:211 0
7 *918:B2 *663:A 1.77822e-05
8 *512:8 rd_data[3] 7.66675e-07
9 *512:8 *663:A 0
*RES
1 *962:Q *588:6 8.75 
2 *588:6 *663:A 20 
3 *588:6 rd_data[3] 45.8572 
*END

*D_NET *589 0.00131377
*CONN
*P rd_data[4] O
*I *664:A I *D INV_X1
*I *963:Q O *D DFFR_X1
*CAP
1 rd_data[4] 0.000407665
2 *664:A 0.000118675
3 *963:Q 6.17802e-06
4 *589:27 0.000508755
5 *589:6 0.000225943
6 rd_data[4] rd_data[6] 0
7 rd_data[4] *842:B 0
8 rd_data[4] *606:7 0
9 *664:A *666:A 6.38328e-07
10 *664:A *600:13 0
11 *589:6 *591:8 1.39839e-06
12 *589:27 rd_data[6] 0
13 *589:27 *591:8 2.61827e-06
14 *779:A rd_data[4] 0
15 *779:A *589:27 0
16 *779:S *589:6 3.09143e-06
17 *779:S *589:27 4.9678e-06
18 *930:B2 *664:A 2.80752e-05
19 *954:B2 *664:A 5.75996e-06
20 *1074:D rd_data[4] 0
*RES
1 *963:Q *589:6 5.75 
2 *589:6 *664:A 27.4643 
3 *589:6 *589:27 20.3214 
4 *589:27 rd_data[4] 41.9822 
*END

*D_NET *590 0.00118559
*CONN
*P rd_data[5] O
*I *665:A I *D INV_X1
*I *964:Q O *D DFFR_X1
*CAP
1 rd_data[5] 1.31414e-05
2 *665:A 0.000123589
3 *964:Q 0.000542994
4 *590:8 0.000432546
5 *665:A *964:RN 6.15137e-06
6 *665:A *638:36 4.4596e-05
7 *590:8 *616:20 0
8 *942:B1 *665:A 0
9 *942:B2 *665:A 2.25683e-05
10 *964:D *665:A 0
*RES
1 *964:Q *590:8 49.3393 
2 *590:8 rd_data[5] 2.55357 
3 *964:Q *665:A 24.1786 
*END

*D_NET *591 0.00141179
*CONN
*P rd_data[6] O
*I *666:A I *D INV_X1
*I *965:Q O *D DFFR_X1
*CAP
1 rd_data[6] 0.000387164
2 *666:A 6.61288e-05
3 *965:Q 7.49291e-05
4 *591:8 0.000528222
5 rd_data[6] *600:13 0
6 rd_data[6] *606:9 8.16741e-05
7 *666:A *606:9 0.00015885
8 *591:8 *842:B 0
9 *591:8 *600:13 0.000108285
10 *591:8 *601:23 0
11 rd_data[4] rd_data[6] 0
12 *664:A *666:A 6.38328e-07
13 *779:A rd_data[6] 1.88334e-06
14 *779:S *591:8 0
15 *589:6 *591:8 1.39839e-06
16 *589:27 rd_data[6] 0
17 *589:27 *591:8 2.61827e-06
*RES
1 *965:Q *591:8 20.25 
2 *591:8 *666:A 19.6429 
3 *591:8 rd_data[6] 46.8036 
*END

*D_NET *592 0.000813964
*CONN
*P rd_data[7] O
*I *653:A I *D INV_X1
*I *966:Q O *D DFFR_X1
*CAP
1 rd_data[7] 0.000339206
2 *653:A 4.34679e-05
3 *966:Q 2.01105e-05
4 *592:8 0.000402785
5 *722:A *653:A 4.9036e-06
6 *722:A *592:8 0
7 *722:B2 *653:A 3.49085e-06
8 *966:D *592:8 0
*RES
1 *966:Q *592:8 11.75 
2 *592:8 *653:A 14.5357 
3 *592:8 rd_data[7] 38.6072 
*END

*D_NET *593 0.00100675
*CONN
*P rd_en I
*I *652:A I *D INV_X1
*CAP
1 rd_en 0.000191939
2 *652:A 0
3 *593:9 0.000191939
4 *593:9 *961:RN 4.37986e-06
5 *593:9 *599:5 0.000285058
6 *593:9 *599:11 1.65458e-05
7 empty *593:9 0.000299413
8 *689:A2 *593:9 4.87096e-06
9 *147:6 *593:9 1.2604e-05
*RES
1 rd_en *593:9 47.2143 
2 *593:9 *652:A 5 
*END

*D_NET *594 0.00331366
*CONN
*I *704:A1 I *D NOR4_X1
*I *690:A1 I *D NAND2_X1
*I *715:A1 I *D NOR3_X1
*I *714:A1 I *D NOR3_X1
*I *711:A1 I *D NOR4_X2
*I *712:A1 I *D NOR4_X2
*I *668:B I *D XOR2_X1
*I *705:A1 I *D NOR4_X2
*I *691:A1 I *D NAND2_X1
*I *655:A I *D INV_X1
*I *699:A1 I *D NOR4_X2
*I *697:A1 I *D NOR4_X2
*I *967:Q O *D DFFR_X1
*CAP
1 *704:A1 0
2 *690:A1 9.22908e-05
3 *715:A1 0.000103756
4 *714:A1 0
5 *711:A1 0
6 *712:A1 0
7 *668:B 6.20253e-05
8 *705:A1 6.3067e-06
9 *691:A1 8.33971e-06
10 *655:A 0
11 *699:A1 1.20052e-05
12 *697:A1 7.47009e-05
13 *967:Q 0.00013012
14 *594:115 0.000206825
15 *594:106 5.58985e-05
16 *594:97 4.51198e-05
17 *594:79 0.000122821
18 *594:73 0.000124422
19 *594:71 0.000135489
20 *594:58 0.000186691
21 *594:45 0.000202012
22 *594:36 8.515e-05
23 *594:14 0.000168518
24 *594:8 0.000211932
25 *668:B *668:A 6.83605e-06
26 *668:B *670:B 2.21566e-06
27 *668:B *711:A2 3.4184e-05
28 *690:A1 *701:A2 1.91498e-06
29 *690:A1 *1188:A 9.46648e-06
30 *690:A1 *596:28 1.6614e-05
31 *690:A1 *596:71 6.25296e-05
32 *690:A1 *629:10 1.71476e-05
33 *690:A1 *631:40 2.41376e-06
34 *690:A1 *633:240 4.30693e-06
35 *697:A1 *699:A2 3.85316e-05
36 *697:A1 *699:A4 1.78252e-06
37 *697:A1 *702:A2 7.72792e-06
38 *697:A1 *595:116 1.32323e-05
39 *697:A1 *596:14 5.05439e-06
40 *699:A1 *597:10 3.05398e-06
41 *705:A1 *656:A 0
42 *705:A1 *595:47 3.09143e-06
43 *715:A1 *715:A2 7.72792e-06
44 *715:A1 *629:10 6.19036e-05
45 *594:8 *1044:CK 4.96933e-05
46 *594:8 *639:50 1.33704e-05
47 *594:14 *597:10 1.59383e-05
48 *594:14 *629:8 4.77184e-06
49 *594:45 *639:50 3.30471e-05
50 *594:58 *599:96 8.42955e-06
51 *594:58 *599:104 1.40944e-06
52 *594:58 *639:64 2.53053e-05
53 *594:71 *595:47 2.18943e-05
54 *594:71 *599:104 2.34987e-05
55 *594:71 *639:28 3.07768e-05
56 *594:71 *639:39 5.06453e-05
57 *594:73 *1179:A 0
58 *594:73 *597:32 1.56073e-06
59 *594:73 *597:38 1.45993e-05
60 *594:73 *597:40 1.55645e-05
61 *594:73 *597:42 4.43868e-06
62 *594:73 *599:104 1.11357e-05
63 *594:79 *669:A 0
64 *594:79 *669:B 0
65 *594:79 *597:42 1.45805e-05
66 *594:79 *630:12 8.90245e-06
67 *594:106 *711:A2 8.43215e-07
68 *594:106 *596:32 8.41365e-06
69 *594:106 *596:38 2.39679e-06
70 *594:115 *596:32 1.40196e-06
71 *594:115 *596:71 4.6613e-07
72 *691:A2 *594:58 3.02351e-05
73 *693:A2 *715:A1 9.22013e-06
74 *701:A1 *690:A1 4.43052e-06
75 *701:A3 *690:A1 5.50692e-06
76 *702:A1 *697:A1 1.8031e-05
77 *704:A2 *705:A1 0
78 *704:A2 *594:71 0
79 *708:A3 *690:A1 9.08808e-06
80 *708:A3 *715:A1 6.86569e-06
81 *712:A2 *668:B 1.90608e-05
82 *714:A2 *668:B 2.40327e-05
83 *714:A2 *594:79 5.91576e-05
84 *714:A2 *594:106 4.13379e-05
85 *714:A3 *715:A1 0.000116144
86 *714:A3 *594:115 1.68643e-06
87 *869:A *594:8 8.13181e-06
88 *872:B *691:A1 0
89 *872:B *594:45 0
90 *969:D *594:8 2.4656e-05
91 *969:D *594:14 2.99872e-05
92 *969:D *594:45 4.38801e-05
93 *970:D *594:71 2.39679e-06
94 *154:14 *594:8 2.61627e-06
95 *154:14 *594:14 4.17885e-06
96 *154:27 *697:A1 5.75004e-07
97 *155:60 *594:58 1.03931e-05
98 *157:16 *594:14 3.52949e-05
99 *157:16 *594:45 3.87929e-06
100 *157:20 *594:71 6.03486e-06
101 *157:20 *594:73 8.58925e-06
102 *157:77 *699:A1 7.96507e-06
103 *157:77 *594:14 6.15137e-06
104 *159:40 *697:A1 0
105 *182:23 *715:A1 7.75289e-06
106 *184:50 *691:A1 6.48216e-07
107 *184:50 *594:14 0
108 *184:50 *594:45 1.08945e-05
109 *185:12 *690:A1 7.72792e-06
110 *186:10 *594:58 2.08098e-06
111 *190:142 *697:A1 8.94068e-07
112 *191:12 *697:A1 2.05723e-05
113 *205:37 *594:73 2.72171e-06
114 *205:37 *594:79 7.65279e-06
115 *206:40 *715:A1 5.1203e-06
116 *208:16 *690:A1 2.03236e-06
117 *208:16 *594:115 2.39679e-06
118 *235:26 *594:58 6.40023e-06
*RES
1 *967:Q *594:8 25.8571 
2 *594:8 *594:14 15.3571 
3 *594:14 *697:A1 24.4643 
4 *594:14 *699:A1 6.75 
5 *594:8 *594:36 5 
6 *594:36 *655:A 5 
7 *594:36 *594:45 10.6786 
8 *594:45 *691:A1 5.75 
9 *594:45 *594:58 23.1429 
10 *594:58 *705:A1 5.75 
11 *594:58 *594:71 15.9286 
12 *594:71 *594:73 7.71429 
13 *594:73 *594:79 13.0357 
14 *594:79 *668:B 13.2857 
15 *594:79 *712:A1 5 
16 *594:73 *594:97 5 
17 *594:97 *711:A1 5 
18 *594:97 *594:106 5.67857 
19 *594:106 *714:A1 5 
20 *594:106 *594:115 6.25 
21 *594:115 *715:A1 24.5 
22 *594:115 *690:A1 21.9643 
23 *594:71 *704:A1 10 
*END

*D_NET *595 0.00364869
*CONN
*I *711:A2 I *D NOR4_X2
*I *702:A2 I *D NOR4_X2
*I *697:A2 I *D NOR4_X2
*I *699:A2 I *D NOR4_X2
*I *696:A2 I *D NOR4_X2
*I *690:A2 I *D NAND2_X1
*I *717:A2 I *D NOR3_X1
*I *718:A2 I *D NOR4_X1
*I *715:A2 I *D NOR3_X1
*I *870:A I *D XNOR2_X1
*I *656:A I *D INV_X1
*I *667:B I *D XOR2_X1
*I *968:Q O *D DFFR_X1
*CAP
1 *711:A2 0.000139881
2 *702:A2 6.26355e-05
3 *697:A2 0
4 *699:A2 6.228e-05
5 *696:A2 0
6 *690:A2 1.98104e-05
7 *717:A2 8.53916e-05
8 *718:A2 0
9 *715:A2 5.23567e-05
10 *870:A 0
11 *656:A 2.94366e-05
12 *667:B 0.000214484
13 *968:Q 9.23602e-05
14 *595:116 0.000161805
15 *595:109 5.75892e-05
16 *595:77 0.000164049
17 *595:66 6.49657e-05
18 *595:51 0.000161707
19 *595:47 0.000277529
20 *595:16 0.000129557
21 *595:12 3.92325e-05
22 *595:10 0.000259674
23 *667:B *610:12 1.59747e-05
24 *699:A2 *699:A4 5.7416e-06
25 *699:A2 *597:12 7.4751e-06
26 *699:A2 *597:18 9.46698e-06
27 *702:A2 *597:18 0
28 *711:A2 *668:A 6.38784e-06
29 *711:A2 *670:B 4.97446e-06
30 *711:A2 *712:A3 2.75346e-06
31 *711:A2 *712:A4 1.51442e-05
32 *711:A2 *596:38 2.36821e-06
33 *715:A2 *687:A1 1.48755e-05
34 *715:A2 *596:71 5.3197e-07
35 *717:A2 *620:12 5.9435e-07
36 *717:A2 *631:40 0
37 *717:A2 *633:240 0
38 *595:10 *639:64 0
39 *595:47 *705:A3 0.000104195
40 *595:47 *597:32 0
41 *595:51 *1204:A 0.000127117
42 *595:51 *596:71 2.37745e-06
43 *595:51 *629:10 5.94167e-07
44 *595:66 *718:A3 3.22834e-06
45 *595:66 *597:57 1.87637e-06
46 *595:77 *709:A1 3.40384e-05
47 *595:77 *718:A3 1.81193e-05
48 *595:109 *597:22 0
49 *595:109 *597:32 0
50 *595:116 *597:22 0
51 *668:B *711:A2 3.4184e-05
52 *671:A1 *667:B 6.6508e-05
53 *671:A1 *711:A2 0
54 *671:A2 *711:A2 0
55 *671:A3 *667:B 0
56 *694:A2 *595:10 0
57 *697:A1 *699:A2 3.85316e-05
58 *697:A1 *702:A2 7.72792e-06
59 *697:A1 *595:116 1.32323e-05
60 *702:A1 *702:A2 2.34865e-05
61 *702:A1 *595:116 8.96406e-06
62 *704:A2 *656:A 9.25123e-06
63 *704:A2 *711:A2 0
64 *705:A1 *656:A 0
65 *705:A1 *595:47 3.09143e-06
66 *705:A2 *656:A 0
67 *705:A2 *595:47 3.94415e-06
68 *714:A2 *711:A2 8.07935e-05
69 *715:A1 *715:A2 7.72792e-06
70 *715:A3 *715:A2 2.75346e-06
71 *717:A1 *717:A2 4.62835e-05
72 *717:A1 *595:77 6.38328e-07
73 *718:A1 *595:51 1.21072e-05
74 *718:A1 *595:66 1.21774e-06
75 *718:A1 *595:77 3.65322e-06
76 *823:A *717:A2 1.65458e-05
77 *870:B *595:10 8.41155e-06
78 *870:B *595:12 1.0164e-05
79 *871:A2 *595:47 0
80 *871:A3 *595:47 4.29713e-06
81 *872:B *595:10 5.69552e-06
82 *873:B *595:47 1.83411e-06
83 *968:D *667:B 0
84 *970:D *595:47 5.54532e-06
85 *154:14 *595:47 3.19164e-07
86 *154:14 *595:109 1.43238e-06
87 *154:27 *595:51 6.29169e-05
88 *154:27 *595:116 7.72537e-06
89 *155:8 *656:A 7.81287e-06
90 *159:6 *595:47 2.56243e-06
91 *159:40 *595:47 1.67419e-05
92 *170:14 *667:B 2.80752e-05
93 *170:14 *711:A2 0
94 *184:10 *595:10 0.000143485
95 *184:10 *595:12 5.62244e-05
96 *184:10 *595:16 8.22158e-05
97 *185:12 *690:A2 1.75123e-05
98 *185:12 *595:77 2.22934e-05
99 *186:12 *595:47 2.64659e-06
100 *190:14 *715:A2 3.50137e-05
101 *190:14 *595:51 0.000119145
102 *191:12 *699:A2 1.93861e-05
103 *203:10 *595:77 1.23777e-05
104 *203:25 *690:A2 6.09818e-06
105 *203:25 *595:77 4.16195e-06
106 *203:29 *702:A2 0
107 *206:40 *715:A2 1.43238e-06
108 *208:16 *690:A2 1.72426e-05
109 *208:16 *717:A2 1.40196e-06
110 *208:16 *595:66 0
111 *211:8 *717:A2 2.75647e-05
112 *212:18 *717:A2 3.09143e-06
113 *212:18 *595:77 3.88252e-05
114 *234:33 *717:A2 1.90814e-05
115 *234:41 *702:A2 0
116 *594:71 *595:47 2.18943e-05
117 *594:106 *711:A2 8.43215e-07
*RES
1 *968:Q *595:10 21.9643 
2 *595:10 *595:12 2.96429 
3 *595:12 *595:16 9.32143 
4 *595:16 *667:B 25.25 
5 *595:16 *656:A 9.25 
6 *595:12 *870:A 10 
7 *595:10 *595:47 24.25 
8 *595:47 *595:51 23.5714 
9 *595:51 *715:A2 16.4286 
10 *595:51 *595:66 5.75 
11 *595:66 *718:A2 5 
12 *595:66 *595:77 13.3929 
13 *595:77 *717:A2 30.3214 
14 *595:77 *690:A2 12.9643 
15 *595:47 *595:109 2.60714 
16 *595:109 *696:A2 5 
17 *595:109 *595:116 4.25 
18 *595:116 *699:A2 22.7143 
19 *595:116 *697:A2 5 
20 *595:116 *702:A2 12.1786 
21 *667:B *711:A2 27.5357 
*END

*D_NET *596 0.00330571
*CONN
*I *658:A I *D INV_X1
*I *696:A3 I *D NOR4_X2
*I *697:A3 I *D NOR4_X2
*I *705:A3 I *D NOR4_X2
*I *708:A1 I *D NOR3_X1
*I *709:A1 I *D NOR3_X1
*I *718:A3 I *D NOR4_X1
*I *687:A1 I *D NAND2_X1
*I *711:A3 I *D NOR4_X2
*I *712:A3 I *D NOR4_X2
*I *670:B I *D XOR2_X1
*I *969:Q O *D DFFR_X1
*CAP
1 *658:A 0
2 *696:A3 0
3 *697:A3 3.46386e-05
4 *705:A3 5.97531e-05
5 *708:A1 6.33003e-06
6 *709:A1 2.22116e-05
7 *718:A3 8.33723e-06
8 *687:A1 0.000111733
9 *711:A3 0
10 *712:A3 1.82286e-06
11 *670:B 0.000101191
12 *969:Q 0.000217251
13 *596:86 3.05489e-05
14 *596:71 0.000213618
15 *596:38 0.000171339
16 *596:32 0.00012697
17 *596:28 0.000193427
18 *596:24 8.10354e-05
19 *596:22 0.000164003
20 *596:16 0.000105792
21 *596:14 7.59596e-05
22 *596:10 0.000284497
23 *670:B *599:104 0
24 *687:A1 *628:10 0.00016333
25 *687:A1 *638:10 9.20128e-06
26 *708:A1 *639:28 7.19036e-06
27 *709:A1 *709:A2 7.72792e-06
28 *709:A1 *597:64 2.29887e-05
29 *718:A3 *597:57 2.75346e-06
30 *718:A3 *597:64 1.87392e-05
31 *596:10 *1044:CK 1.47255e-05
32 *596:10 *599:75 0
33 *596:22 *629:10 1.09659e-05
34 *596:24 *629:10 2.53272e-05
35 *596:28 *597:32 1.42931e-06
36 *596:28 *629:10 1.84403e-05
37 *596:32 *597:32 5.05874e-06
38 *596:32 *597:38 2.16072e-07
39 *596:38 *712:A4 3.83732e-05
40 *596:38 *597:38 0
41 *596:71 *628:10 7.69269e-05
42 *596:71 *632:14 2.1951e-05
43 *668:B *670:B 2.21566e-06
44 *671:A3 *670:B 0
45 *690:A1 *596:28 1.6614e-05
46 *690:A1 *596:71 6.25296e-05
47 *697:A1 *596:14 5.05439e-06
48 *697:A4 *697:A3 1.90816e-05
49 *697:A4 *596:22 5.52959e-06
50 *701:A1 *596:32 2.56243e-06
51 *702:A1 *697:A3 4.64603e-05
52 *702:A1 *596:22 2.75346e-06
53 *704:A2 *596:38 0
54 *705:A4 *705:A3 8.96338e-05
55 *708:A2 *596:24 6.13253e-05
56 *708:A2 *596:28 1.72405e-05
57 *708:A3 *708:A1 1.21774e-06
58 *708:A3 *596:28 8.221e-06
59 *711:A2 *670:B 4.97446e-06
60 *711:A2 *712:A3 2.75346e-06
61 *711:A2 *596:38 2.36821e-06
62 *712:A2 *670:B 1.20206e-05
63 *715:A2 *687:A1 1.48755e-05
64 *715:A2 *596:71 5.3197e-07
65 *718:A1 *596:71 1.07633e-05
66 *869:A *596:10 2.74149e-06
67 *871:A2 *705:A3 0
68 *872:A *596:16 0
69 *872:B *596:16 0
70 *872:B *596:22 1.40196e-06
71 *906:B *670:B 4.1554e-07
72 *1180:A *596:28 5.42306e-05
73 *150:8 *670:B 0
74 *154:14 *596:10 5.94174e-07
75 *154:14 *596:14 5.61989e-06
76 *154:14 *596:22 3.30857e-05
77 *154:27 *596:71 2.82756e-05
78 *155:12 *670:B 5.57182e-06
79 *159:25 *596:24 4.44127e-06
80 *159:40 *705:A3 9.58715e-06
81 *159:40 *596:14 6.32202e-06
82 *159:40 *596:22 3.72101e-06
83 *190:14 *687:A1 2.84364e-06
84 *190:142 *596:14 2.69048e-06
85 *193:14 *596:10 0
86 *202:12 *596:22 2.72417e-06
87 *206:40 *687:A1 2.69685e-06
88 *208:16 *596:71 2.37744e-05
89 *235:26 *596:22 3.74027e-05
90 *235:26 *596:24 5.48932e-05
91 *265:12 *670:B 3.5069e-06
92 *594:106 *596:32 8.41365e-06
93 *594:106 *596:38 2.39679e-06
94 *594:115 *596:32 1.40196e-06
95 *594:115 *596:71 4.6613e-07
96 *595:47 *705:A3 0.000104195
97 *595:51 *596:71 2.37745e-06
98 *595:66 *718:A3 3.22834e-06
99 *595:77 *709:A1 3.40384e-05
100 *595:77 *718:A3 1.81193e-05
*RES
1 *969:Q *596:10 31.7143 
2 *596:10 *596:14 12.0357 
3 *596:14 *596:16 0.928572 
4 *596:16 *596:22 13.2143 
5 *596:22 *596:24 7.03572 
6 *596:24 *596:28 10.6786 
7 *596:28 *596:32 6.17857 
8 *596:32 *596:38 8.03572 
9 *596:38 *670:B 24.5714 
10 *596:38 *712:A3 5.5 
11 *596:32 *711:A3 5 
12 *596:28 *596:71 19.4643 
13 *596:71 *687:A1 23.25 
14 *596:71 *596:86 5 
15 *596:86 *718:A3 6.75 
16 *596:86 *709:A1 8.25 
17 *596:24 *708:A1 10.75 
18 *596:22 *705:A3 20.25 
19 *596:16 *697:A3 10.6786 
20 *596:14 *696:A3 5 
21 *596:10 *658:A 10 
*END

*D_NET *597 0.00313372
*CONN
*I *699:A4 I *D NOR4_X2
*I *702:A4 I *D NOR4_X2
*I *701:A2 I *D NOR3_X1
*I *660:A I *D INV_X1
*I *704:A4 I *D NOR4_X1
*I *711:A4 I *D NOR4_X2
*I *712:A4 I *D NOR4_X2
*I *709:A2 I *D NOR3_X1
*I *687:A2 I *D NAND2_X1
*I *718:A4 I *D NOR4_X1
*I *669:B I *D XOR2_X1
*I *970:Q O *D DFFR_X1
*CAP
1 *699:A4 4.53506e-05
2 *702:A4 3.16117e-05
3 *701:A2 5.6559e-05
4 *660:A 0
5 *704:A4 0
6 *711:A4 0
7 *712:A4 2.46535e-05
8 *709:A2 3.21427e-06
9 *687:A2 7.9975e-05
10 *718:A4 0
11 *669:B 5.8006e-05
12 *970:Q 0.000119655
13 *597:64 0.000110717
14 *597:57 0.000126042
15 *597:42 0.000200177
16 *597:40 7.86454e-05
17 *597:38 3.32876e-05
18 *597:32 0.000144158
19 *597:22 0.000173294
20 *597:18 0.000201638
21 *597:12 0.000142282
22 *597:10 0.000182686
23 *669:B *651:A 9.62051e-07
24 *669:B *669:A 8.90245e-06
25 *669:B *599:104 4.22061e-05
26 *687:A2 *622:38 7.72537e-06
27 *687:A2 *626:14 8.86402e-05
28 *687:A2 *632:14 1.3143e-06
29 *687:A2 *638:10 2.26864e-05
30 *701:A2 *632:14 2.24152e-05
31 *701:A2 *633:240 4.17827e-06
32 *597:10 *629:8 1.63351e-05
33 *597:10 *639:50 0
34 *597:22 *632:14 7.10056e-06
35 *597:32 *1179:A 1.52083e-06
36 *597:32 *639:28 9.97704e-06
37 *597:38 *599:104 3.75199e-05
38 *597:40 *599:104 3.79444e-05
39 *597:42 *599:104 0.000110252
40 *597:57 *651:A 0
41 *597:57 *1179:A 1.32323e-05
42 *597:57 *630:12 8.94418e-06
43 *690:A1 *701:A2 1.91498e-06
44 *697:A1 *699:A4 1.78252e-06
45 *697:A4 *702:A4 2.39679e-06
46 *699:A1 *597:10 3.05398e-06
47 *699:A2 *699:A4 5.7416e-06
48 *699:A2 *597:12 7.4751e-06
49 *699:A2 *597:18 9.46698e-06
50 *701:A1 *701:A2 1.32348e-05
51 *701:A1 *597:18 0
52 *701:A1 *597:22 0
53 *701:A1 *597:32 4.13413e-06
54 *701:A3 *701:A2 7.16188e-07
55 *702:A1 *702:A4 4.80114e-06
56 *702:A2 *597:18 0
57 *702:A3 *699:A4 0
58 *702:A3 *597:10 0
59 *704:A2 *597:38 4.12459e-06
60 *704:A3 *597:32 2.36174e-05
61 *704:A3 *597:38 2.39679e-06
62 *708:A3 *597:32 6.88612e-06
63 *709:A1 *709:A2 7.72792e-06
64 *709:A1 *597:64 2.29887e-05
65 *709:A3 *709:A2 5.33113e-06
66 *709:A3 *597:64 7.19036e-06
67 *711:A2 *712:A4 1.51442e-05
68 *714:A2 *597:57 0
69 *718:A3 *597:57 2.75346e-06
70 *718:A3 *597:64 1.87392e-05
71 *809:A *699:A4 0
72 *809:S *699:A4 4.88118e-06
73 *809:S *597:12 5.96136e-06
74 *809:S *597:18 1.48061e-05
75 *872:B *597:10 4.4274e-06
76 *970:D *597:32 3.81848e-06
77 *1175:A *687:A2 7.94555e-05
78 *1181:A *597:18 3.58094e-06
79 *154:27 *701:A2 0
80 *154:27 *597:18 0
81 *157:16 *597:10 2.88615e-06
82 *157:20 *597:32 0.000106624
83 *159:6 *597:32 4.29935e-05
84 *181:80 *687:A2 0
85 *181:80 *701:A2 0
86 *181:80 *597:18 6.66781e-06
87 *182:8 *687:A2 4.12796e-06
88 *182:21 *687:A2 2.31638e-05
89 *185:12 *687:A2 1.66988e-05
90 *185:16 *597:57 5.75577e-05
91 *185:16 *597:64 3.41809e-05
92 *193:14 *699:A4 1.16229e-06
93 *202:12 *597:10 6.94452e-05
94 *202:12 *597:32 2.57883e-05
95 *202:27 *702:A4 1.51496e-05
96 *202:27 *597:10 5.91602e-05
97 *203:25 *701:A2 8.2121e-06
98 *205:16 *669:B 1.7614e-06
99 *205:16 *597:42 1.73915e-06
100 *205:37 *597:42 4.025e-07
101 *206:40 *597:57 0
102 *208:16 *597:57 0
103 *594:14 *597:10 1.59383e-05
104 *594:73 *597:32 1.56073e-06
105 *594:73 *597:38 1.45993e-05
106 *594:73 *597:40 1.55645e-05
107 *594:73 *597:42 4.43868e-06
108 *594:79 *669:B 0
109 *594:79 *597:42 1.45805e-05
110 *595:47 *597:32 0
111 *595:66 *597:57 1.87637e-06
112 *595:109 *597:22 0
113 *595:109 *597:32 0
114 *595:116 *597:22 0
115 *596:28 *597:32 1.42931e-06
116 *596:32 *597:32 5.05874e-06
117 *596:32 *597:38 2.16072e-07
118 *596:38 *712:A4 3.83732e-05
119 *596:38 *597:38 0
*RES
1 *970:Q *597:10 25.6786 
2 *597:10 *597:12 2.28572 
3 *597:12 *597:18 15.1429 
4 *597:18 *597:22 5.17857 
5 *597:22 *597:32 26.8571 
6 *597:32 *597:38 8.53572 
7 *597:38 *597:40 2.28572 
8 *597:40 *597:42 6.35715 
9 *597:42 *669:B 16.0357 
10 *597:42 *597:57 16.25 
11 *597:57 *718:A4 5 
12 *597:57 *597:64 4.25 
13 *597:64 *687:A2 26.1786 
14 *597:64 *709:A2 5.75 
15 *597:40 *712:A4 13.75 
16 *597:38 *711:A4 10 
17 *597:32 *704:A4 5 
18 *597:22 *660:A 5 
19 *597:18 *701:A2 22.9286 
20 *597:12 *702:A4 13.75 
21 *597:10 *699:A4 15 
*END

*D_NET *598 0.000548737
*CONN
*I *695:A I *D XNOR2_X1
*I *673:B I *D XOR2_X1
*I *672:B I *D XNOR2_X1
*I *971:Q O *D DFFR_X1
*CAP
1 *695:A 7.54093e-06
2 *673:B 5.19554e-05
3 *672:B 0
4 *971:Q 8.86219e-05
5 *598:23 0.000113036
6 *598:12 0.000142162
7 *673:B *672:A 6.50827e-06
8 *673:B *673:A 1.98471e-05
9 *598:12 *971:RN 9.62051e-07
10 *598:12 *599:11 1.0208e-05
11 *598:12 *599:24 4.1124e-05
12 *598:23 *672:A 5.10087e-06
13 *598:23 *599:24 0
14 *674:A2 *598:12 2.13496e-05
15 *674:A2 *598:23 3.58094e-06
16 *688:B2 *695:A 0
17 *688:B2 *598:23 1.60038e-06
18 *971:D *695:A 1.26075e-05
19 *971:D *598:23 1.48992e-05
20 *170:39 *598:23 0
21 *172:6 *673:B 7.63212e-06
*RES
1 *971:Q *598:12 26.1429 
2 *598:12 *672:B 5 
3 *598:12 *598:23 11.0357 
4 *598:23 *673:B 16.5714 
5 *598:23 *695:A 11.75 
*END

*D_NET *599 0.00988369
*CONN
*P rst_n I
*I *963:RN I *D DFFR_X1
*I *960:RN I *D DFFR_X1
*I *965:RN I *D DFFR_X1
*I *959:RN I *D DFFR_X1
*I *966:RN I *D DFFR_X1
*I *970:RN I *D DFFR_X1
*I *651:A I *D INV_X1
*I *730:A1 I *D NAND4_X1
*I *973:RN I *D DFFR_X1
*I *972:RN I *D DFFR_X1
*I *974:RN I *D DFFR_X1
*I *964:RN I *D DFFR_X1
*I *975:RN I *D DFFR_X1
*I *962:RN I *D DFFR_X1
*I *967:RN I *D DFFR_X1
*I *969:RN I *D DFFR_X1
*I *961:RN I *D DFFR_X1
*I *976:RN I *D DFFR_X1
*I *968:RN I *D DFFR_X1
*I *971:RN I *D DFFR_X1
*CAP
1 rst_n 0.000248662
2 *963:RN 5.75783e-05
3 *960:RN 8.68669e-06
4 *965:RN 0.000138565
5 *959:RN 0.000271071
6 *966:RN 0
7 *970:RN 0
8 *651:A 1.2383e-05
9 *730:A1 0
10 *973:RN 3.77751e-05
11 *972:RN 4.63867e-05
12 *974:RN 0
13 *964:RN 5.76965e-05
14 *975:RN 7.72373e-05
15 *962:RN 0.000539034
16 *967:RN 0
17 *969:RN 0.000139231
18 *961:RN 0.000212188
19 *976:RN 0
20 *968:RN 8.65769e-05
21 *971:RN 5.40049e-05
22 *599:238 0.00057217
23 *599:236 0.000618258
24 *599:211 0.000450661
25 *599:159 0.000185037
26 *599:139 0.000157366
27 *599:137 0.000269452
28 *599:131 0.000209598
29 *599:110 0.00024473
30 *599:104 0.000240869
31 *599:96 0.000332202
32 *599:75 0.000303417
33 *599:66 0.000110199
34 *599:24 0.000159112
35 *599:11 0.000185026
36 *599:5 0.000480211
37 *959:RN *1098:CK 4.99246e-05
38 *959:RN *647:92 0
39 *962:RN *760:S 0
40 *962:RN *816:B 1.18608e-05
41 *962:RN *816:S 0
42 *962:RN *1036:CK 0.000153322
43 *962:RN *1044:CK 3.5817e-05
44 *962:RN *603:163 6.48216e-07
45 *962:RN *641:71 3.68681e-05
46 *963:RN *600:13 2.07669e-05
47 *965:RN *600:19 0
48 *968:RN *729:A 0
49 *968:RN *971:CK 2.88639e-05
50 *968:RN *639:64 4.51285e-05
51 *972:RN *609:51 1.65264e-05
52 *973:RN *968:CK 1.35784e-05
53 *973:RN *609:8 1.25431e-05
54 *973:RN *609:10 2.08098e-06
55 *975:RN *611:70 1.45321e-05
56 *975:RN *612:80 0.000141904
57 *975:RN *630:16 0.000231598
58 *599:24 *672:A 8.12996e-06
59 *599:24 *673:A 1.06148e-05
60 *599:75 *1044:CK 1.45251e-05
61 *599:96 *639:39 2.33389e-05
62 *599:104 *669:A 2.89018e-05
63 *599:104 *630:12 7.9975e-05
64 *599:104 *630:16 3.46436e-06
65 *599:104 *639:39 1.30391e-05
66 *599:110 *669:A 4.93928e-05
67 *599:110 *612:80 1.7033e-05
68 *599:110 *630:16 6.24717e-05
69 *599:131 *611:66 1.43238e-06
70 *599:131 *619:18 1.79993e-05
71 *599:131 *622:38 1.71675e-05
72 *599:137 *680:A1 4.77786e-06
73 *599:137 *725:A2 5.50913e-06
74 *599:137 *730:A3 2.52965e-06
75 *599:137 *609:16 1.04006e-05
76 *599:139 *609:16 6.50827e-06
77 *599:139 *638:47 4.26792e-05
78 *599:159 *609:10 4.93996e-05
79 *599:159 *609:16 5.39412e-06
80 *599:159 *638:47 1.28582e-05
81 *599:159 *638:58 1.92618e-05
82 *599:211 *1104:CK 1.22595e-05
83 *599:211 *641:71 2.97531e-05
84 *599:211 *647:92 0
85 *599:211 *647:101 2.43773e-05
86 *599:236 *649:106 0
87 empty *599:11 2.37916e-06
88 rd_data[3] *599:211 0
89 *662:A *599:236 9.57492e-07
90 *665:A *964:RN 6.15137e-06
91 *669:B *651:A 9.62051e-07
92 *669:B *599:104 4.22061e-05
93 *670:B *599:104 0
94 *677:B2 *968:RN 1.17765e-05
95 *677:B2 *599:24 9.52324e-06
96 *684:A3 *599:131 4.32144e-07
97 *688:B1 *971:RN 0
98 *688:B1 *599:11 1.25722e-05
99 *689:A2 *961:RN 0
100 *691:A2 *599:96 0
101 *722:A *959:RN 3.46596e-06
102 *722:B1 *959:RN 7.19036e-06
103 *729:B *968:RN 8.33759e-07
104 *729:B *973:RN 6.78918e-06
105 *729:B *599:139 1.08366e-05
106 *779:S *965:RN 7.4083e-06
107 *785:A *599:238 3.01743e-06
108 *785:S *599:238 0.00010562
109 *786:S *599:238 9.91569e-06
110 *799:A *599:238 3.34324e-06
111 *869:A *962:RN 0
112 *869:B *962:RN 0
113 *869:B *599:66 0
114 *869:B *599:75 0
115 *876:A2 *599:238 2.64904e-06
116 *876:B1 *599:238 2.32685e-06
117 *876:B2 *599:238 6.6684e-06
118 *878:A3 *599:238 7.60479e-06
119 *895:A1 *599:238 1.51283e-05
120 *897:A *599:236 7.19036e-06
121 *897:A *599:238 0
122 *897:B1 *599:236 1.68643e-06
123 *897:B2 *960:RN 0
124 *897:B2 *599:238 0
125 *906:A *961:RN 8.27554e-05
126 *918:A *599:211 1.34605e-05
127 *918:B2 *599:211 0
128 *930:B2 *963:RN 8.62655e-06
129 *930:B2 *965:RN 4.4596e-05
130 *954:B2 *965:RN 3.36492e-06
131 *959:D *599:236 1.10223e-05
132 *960:D *599:236 0
133 *961:D *969:RN 0
134 *962:D *599:211 0
135 *964:D *964:RN 0
136 *966:D *959:RN 3.28714e-05
137 *967:D *962:RN 0
138 *967:D *599:75 0
139 *973:D *973:RN 5.57182e-06
140 *973:D *599:159 8.72685e-06
141 *974:D *964:RN 2.36789e-05
142 *974:D *599:139 1.11168e-06
143 *976:D *968:RN 2.30003e-05
144 *1036:D *962:RN 3.35822e-05
145 *1044:D *962:RN 1.64551e-05
146 *1100:D *962:RN 1.40196e-05
147 *1171:A *599:131 4.78054e-06
148 *147:6 *961:RN 4.55949e-09
149 *147:6 *599:11 2.39679e-06
150 *150:8 *599:110 6.54588e-06
151 *150:8 *599:131 0
152 *150:39 *599:104 8.727e-07
153 *153:6 *599:137 6.38129e-06
154 *153:15 *599:131 8.43215e-07
155 *153:15 *599:137 4.30678e-06
156 *170:24 *968:RN 1.39834e-05
157 *170:39 *968:RN 5.62265e-05
158 *170:39 *971:RN 1.3743e-06
159 *170:39 *599:11 8.24917e-06
160 *170:39 *599:24 0.000243986
161 *180:12 *599:131 0
162 *183:10 *961:RN 7.72537e-06
163 *183:10 *599:96 0
164 *184:50 *962:RN 0
165 *184:73 *599:211 0
166 *184:92 *959:RN 0
167 *184:104 *959:RN 2.68556e-05
168 *184:104 *599:236 2.61827e-06
169 *184:115 *599:236 7.15835e-06
170 *184:121 *599:238 0
171 *184:127 *599:238 0
172 *184:146 *599:238 0
173 *188:106 *599:238 8.64238e-05
174 *188:134 *962:RN 0
175 *191:142 *599:238 1.13993e-06
176 *199:12 *599:104 2.15022e-05
177 *205:16 *599:104 0
178 *206:14 *599:131 9.0471e-06
179 *206:40 *651:A 7.30645e-06
180 *206:40 *599:110 3.62519e-06
181 *206:40 *599:131 1.79047e-06
182 *221:18 *599:137 1.10536e-05
183 *225:26 *599:238 9.5257e-06
184 *226:16 *964:RN 6.31268e-06
185 *226:16 *599:139 9.29508e-06
186 *226:98 *599:238 3.022e-05
187 *226:100 *599:238 0.000145659
188 *232:138 *965:RN 3.34423e-05
189 *235:26 *599:96 4.47557e-06
190 *235:26 *599:104 1.88334e-06
191 *538:10 *599:236 9.14865e-06
192 *572:12 *962:RN 0
193 *577:12 *599:238 3.04116e-06
194 *587:26 *599:66 0
195 *587:26 *599:75 0
196 *588:6 *599:211 0
197 *593:9 *961:RN 4.37986e-06
198 *593:9 *599:5 0.000285058
199 *593:9 *599:11 1.65458e-05
200 *594:58 *599:96 8.42955e-06
201 *594:58 *599:104 1.40944e-06
202 *594:71 *599:104 2.34987e-05
203 *594:73 *599:104 1.11357e-05
204 *596:10 *599:75 0
205 *597:38 *599:104 3.75199e-05
206 *597:40 *599:104 3.79444e-05
207 *597:42 *599:104 0.000110252
208 *597:57 *651:A 0
209 *598:12 *971:RN 9.62051e-07
210 *598:12 *599:11 1.0208e-05
211 *598:12 *599:24 4.1124e-05
212 *598:23 *599:24 0
*RES
1 rst_n *599:5 37.9286 
2 *599:5 *599:11 12.3929 
3 *599:11 *971:RN 10.3571 
4 *599:11 *599:24 19.5 
5 *599:24 *968:RN 23.1071 
6 *599:24 *976:RN 10 
7 *599:5 *961:RN 38.5 
8 *961:RN *599:66 8.75 
9 *599:66 *969:RN 5.92857 
10 *599:66 *599:75 6.75 
11 *599:75 *967:RN 5 
12 *599:75 *962:RN 36.75 
13 *969:RN *599:96 23.8214 
14 *599:96 *599:104 33.3929 
15 *599:104 *599:110 9.89286 
16 *599:110 *975:RN 24.1429 
17 *599:110 *599:131 20.1071 
18 *599:131 *599:137 12.6786 
19 *599:137 *599:139 13.8214 
20 *599:139 *964:RN 17.4286 
21 *599:139 *974:RN 10 
22 *599:137 *599:159 13.8214 
23 *599:159 *972:RN 14.6786 
24 *599:159 *973:RN 15.6786 
25 *599:131 *730:A1 5 
26 *599:104 *651:A 6.75 
27 *599:96 *970:RN 10 
28 *962:RN *599:211 37.3572 
29 *599:211 *966:RN 5 
30 *599:211 *959:RN 23.3572 
31 *959:RN *599:236 22.6786 
32 *599:236 *599:238 63.3572 
33 *599:238 *965:RN 20.25 
34 *599:236 *960:RN 10.9286 
35 *965:RN *963:RN 17.0357 
*END

*D_NET *600 0.00831349
*CONN
*P wr_data[0] I
*I *778:B I *D MUX2_X1
*I *757:B I *D MUX2_X1
*I *764:A I *D MUX2_X1
*I *806:B I *D MUX2_X1
*I *841:B I *D MUX2_X1
*I *799:B I *D MUX2_X1
*I *785:B I *D MUX2_X1
*I *792:B I *D MUX2_X1
*I *820:B I *D MUX2_X1
*I *771:B I *D MUX2_X1
*I *862:B I *D MUX2_X1
*I *813:B I *D MUX2_X1
*I *827:B I *D MUX2_X1
*I *855:B I *D MUX2_X1
*I *834:B I *D MUX2_X1
*I *848:B I *D MUX2_X1
*CAP
1 wr_data[0] 6.72793e-05
2 *778:B 0
3 *757:B 0
4 *764:A 0
5 *806:B 8.70333e-05
6 *841:B 7.51924e-05
7 *799:B 3.42943e-05
8 *785:B 2.91929e-06
9 *792:B 0
10 *820:B 0
11 *771:B 0
12 *862:B 2.33806e-05
13 *813:B 6.13625e-05
14 *827:B 8.28018e-05
15 *855:B 4.92065e-05
16 *834:B 3.25085e-05
17 *848:B 0.00010195
18 *600:200 0.000205514
19 *600:185 0.000128835
20 *600:170 0.000185673
21 *600:155 0.000218955
22 *600:145 0.000180438
23 *600:105 0.000156932
24 *600:77 0.000270098
25 *600:67 0.000234732
26 *600:63 6.25343e-05
27 *600:50 9.7554e-05
28 *600:37 0.000227572
29 *600:29 0.000359866
30 *600:23 0.000373003
31 *600:19 9.36119e-05
32 *600:13 0.000602316
33 *600:11 0.000594794
34 *806:B *1041:CK 5.4364e-05
35 *813:B *622:48 1.28278e-05
36 *813:B *622:61 3.09143e-06
37 *813:B *632:26 7.19036e-06
38 *841:B *1074:CK 0
39 *848:B *607:82 5.52333e-05
40 *848:B *633:268 0
41 *600:13 *1073:CK 7.37789e-06
42 *600:19 *1073:CK 2.16072e-07
43 *600:19 *648:29 0
44 *600:23 *648:33 0
45 *600:29 *1037:CK 0.000148979
46 *600:29 *1101:CK 4.86669e-06
47 *600:29 *604:63 9.3409e-06
48 *600:29 *627:43 2.92403e-05
49 *600:29 *633:320 2.57927e-05
50 *600:37 *1037:CK 3.41847e-05
51 *600:37 *633:275 2.60188e-05
52 *600:50 *607:82 2.63178e-05
53 *600:63 *607:82 2.94571e-05
54 *600:77 *633:175 6.83589e-06
55 *600:105 *881:B1 5.89762e-06
56 *600:105 *623:10 1.1205e-06
57 *600:145 *627:43 2.92403e-05
58 *600:145 *633:326 2.41432e-06
59 *600:145 *633:341 1.32137e-05
60 *600:155 *874:B1 6.19403e-05
61 *600:155 *627:43 1.52083e-06
62 *600:155 *633:341 1.54775e-05
63 *600:170 *874:B1 6.02282e-06
64 *600:185 *1041:CK 3.78407e-05
65 *600:200 *1041:CK 5.84417e-05
66 rd_data[6] *600:13 0
67 *664:A *600:13 0
68 *757:A *600:23 2.08416e-06
69 *757:A *600:29 4.32298e-05
70 *757:A *600:145 0.000207788
71 *757:S *600:23 0
72 *764:B *600:145 7.16188e-07
73 *764:B *600:155 8.35706e-05
74 *764:S *600:155 3.65322e-06
75 *771:S *600:50 6.08078e-05
76 *771:S *600:63 3.70539e-05
77 *778:A *600:13 3.33445e-06
78 *778:A *600:19 2.16072e-07
79 *779:S *600:13 3.19164e-07
80 *785:A *600:170 1.91644e-05
81 *785:A *600:185 7.35912e-06
82 *785:S *600:170 1.87637e-06
83 *806:A *806:B 9.01242e-06
84 *806:S *806:B 2.87248e-06
85 *827:A *827:B 4.44159e-06
86 *827:A *600:77 7.72792e-06
87 *834:A *834:B 7.16188e-07
88 *841:A *841:B 0.000207109
89 *842:A *600:13 0
90 *848:A *848:B 3.05353e-05
91 *848:A *600:50 1.83154e-06
92 *855:A *855:B 5.26067e-05
93 *874:A1 *600:170 3.09411e-06
94 *875:A1 *806:B 0
95 *875:A1 *600:185 0
96 *875:A1 *600:200 0
97 *875:A2 *799:B 0.000117243
98 *875:A2 *600:185 5.20238e-07
99 *878:A2 *785:B 7.72537e-06
100 *878:A2 *600:170 4.2289e-06
101 *878:A3 *600:170 1.83411e-06
102 *878:A4 *600:170 0
103 *879:A1 *827:B 1.87637e-06
104 *881:A1 *600:105 2.48069e-05
105 *881:B2 *600:77 2.31363e-05
106 *881:B2 *600:105 7.91185e-06
107 *882:A1 *600:77 3.19164e-07
108 *882:B2 *600:77 9.2214e-05
109 *883:A1 *834:B 5.96901e-05
110 *883:A1 *600:77 3.19164e-06
111 *883:A4 *600:67 4.95679e-05
112 *884:A2 *600:170 2.23871e-06
113 *884:A3 *600:155 0
114 *892:A2 *806:B 3.83909e-06
115 *892:A2 *600:200 6.3924e-06
116 *892:B1 *600:170 0
117 *893:B1 *799:B 1.40196e-06
118 *923:A3 *600:29 0
119 *930:B2 *600:13 0
120 *963:RN *600:13 2.07669e-05
121 *965:RN *600:19 0
122 *977:D *862:B 4.9678e-06
123 *977:D *600:105 0
124 *993:D *848:B 6.87788e-06
125 *1009:D *600:77 5.08276e-06
126 *1037:D *600:29 6.08369e-06
127 *1041:D *806:B 1.41087e-05
128 *1057:D *600:170 0
129 *1065:D *600:185 5.59765e-05
130 *1073:D *600:13 3.14317e-05
131 *1097:D *600:19 3.84365e-06
132 *1101:D *600:29 5.96926e-05
133 *178:62 *827:B 2.39679e-06
134 *178:70 *827:B 1.49183e-05
135 *184:140 *600:185 2.75402e-05
136 *184:146 *600:170 4.40064e-06
137 *184:146 *600:185 1.04875e-05
138 *191:29 *855:B 7.38533e-06
139 *191:29 *600:77 9.14313e-06
140 *191:62 *848:B 3.83757e-05
141 *196:103 *841:B 0.000307653
142 *203:35 *799:B 7.19036e-06
143 *203:39 *799:B 0.000104497
144 *206:42 *813:B 0
145 *208:22 *855:B 3.75103e-05
146 *208:22 *600:77 9.50324e-06
147 *209:31 *600:145 0
148 *209:31 *600:155 0
149 *216:69 *827:B 0.000104932
150 *216:73 *827:B 5.62964e-05
151 *216:73 *600:77 2.35492e-06
152 *216:81 *834:B 1.27666e-06
153 *216:98 *834:B 4.99529e-05
154 *216:102 *600:37 1.86809e-06
155 *225:20 *855:B 7.19036e-06
156 *225:20 *600:37 7.52021e-05
157 *225:26 *600:29 0.000342545
158 *225:26 *600:37 8.26038e-06
159 *230:35 *600:145 0
160 *230:35 *600:155 0
161 *231:27 *855:B 6.38328e-07
162 *231:31 *855:B 0
163 *231:60 *600:67 4.95679e-05
164 *231:60 *600:77 4.81505e-05
165 *232:138 *600:19 0
166 *233:48 *848:B 8.80829e-06
167 *253:12 *841:B 0
168 *457:10 *862:B 7.28854e-06
169 *457:10 *600:105 6.32202e-06
170 *497:14 *600:155 1.67301e-06
171 *513:10 *855:B 4.11048e-05
172 *513:10 *600:77 1.60038e-06
173 *529:8 *841:B 6.23524e-05
174 *581:10 *600:29 1.39047e-05
175 *591:8 *600:13 0.000108285
*RES
1 wr_data[0] *600:11 7.69643 
2 *600:11 *600:13 58.6072 
3 *600:13 *600:19 7.60715 
4 *600:19 *600:23 6.75 
5 *600:23 *600:29 47.3214 
6 *600:29 *600:37 17.7857 
7 *600:37 *848:B 24.1429 
8 *600:37 *600:50 4.32143 
9 *600:50 *834:B 15.75 
10 *600:50 *600:63 10 
11 *600:63 *600:67 9.75 
12 *600:67 *600:77 28.4643 
13 *600:77 *855:B 17.1071 
14 *600:77 *827:B 30.5714 
15 *600:67 *600:105 7.71429 
16 *600:105 *813:B 16.9286 
17 *600:105 *862:B 12.8571 
18 *600:63 *771:B 5 
19 *600:29 *820:B 5 
20 *600:23 *600:145 19.3571 
21 *600:145 *600:155 22.25 
22 *600:155 *792:B 5 
23 *600:155 *600:170 19.2143 
24 *600:170 *785:B 10.75 
25 *600:170 *600:185 13.0714 
26 *600:185 *799:B 22.1071 
27 *600:185 *600:200 5.75 
28 *600:200 *841:B 32.2857 
29 *600:200 *806:B 15.75 
30 *600:145 *764:A 5 
31 *600:19 *757:B 5 
32 *600:13 *778:B 5 
*END

*D_NET *601 0.00657477
*CONN
*P wr_data[1] I
*I *807:B I *D MUX2_X1
*I *814:B I *D MUX2_X1
*I *835:B I *D MUX2_X1
*I *758:B I *D MUX2_X1
*I *800:B I *D MUX2_X1
*I *793:B I *D MUX2_X1
*I *821:B I *D MUX2_X1
*I *863:B I *D MUX2_X1
*I *856:B I *D MUX2_X1
*I *849:B I *D MUX2_X1
*I *765:A I *D MUX2_X1
*I *772:B I *D MUX2_X1
*I *828:B I *D MUX2_X1
*I *786:B I *D MUX2_X1
*I *779:B I *D MUX2_X1
*I *842:B I *D MUX2_X1
*CAP
1 wr_data[1] 0.000365092
2 *807:B 0.000127681
3 *814:B 0
4 *835:B 0
5 *758:B 0.000133219
6 *800:B 3.16291e-05
7 *793:B 0
8 *821:B 1.22452e-05
9 *863:B 6.01393e-05
10 *856:B 8.57205e-06
11 *849:B 0.000122302
12 *765:A 0
13 *772:B 7.07726e-05
14 *828:B 0
15 *786:B 0
16 *779:B 0
17 *842:B 9.36744e-05
18 *601:89 0.000129781
19 *601:83 0.000194124
20 *601:81 0.000142703
21 *601:79 0.000253598
22 *601:77 0.000158399
23 *601:71 0.000184638
24 *601:65 0.000250736
25 *601:59 0.000245828
26 *601:57 0.000154001
27 *601:55 0.000290625
28 *601:23 0.000341859
29 *601:13 0.000297119
30 *601:11 7.49709e-05
31 *601:9 0.000211229
32 *601:7 0.000537215
33 *807:B *1042:CK 0
34 *821:B *978:CK 0
35 *842:B *1074:CK 7.66905e-06
36 *849:B *621:42 1.82579e-05
37 *856:B *621:42 7.19036e-06
38 *863:B *978:CK 0
39 *601:23 *606:9 6.66862e-05
40 *601:55 *1066:CK 0
41 *601:55 *649:121 0
42 *601:57 *649:95 7.7833e-06
43 *601:71 *1050:CK 5.46432e-05
44 *601:77 *978:CK 0
45 *601:81 *621:48 1.2203e-05
46 *601:83 *621:48 2.46986e-05
47 *601:89 *621:48 1.62121e-05
48 rd_data[4] *842:B 0
49 *758:A *758:B 1.50364e-05
50 *764:S *601:81 0
51 *764:S *601:83 0
52 *765:B *601:81 0
53 *772:A *772:B 6.48216e-07
54 *779:A *601:23 0.000171847
55 *779:S *842:B 2.77383e-05
56 *792:S *601:79 0
57 *792:S *601:81 0
58 *793:A *601:71 1.86809e-06
59 *793:A *601:77 7.16188e-07
60 *793:S *601:79 0
61 *806:S *601:23 0.000106624
62 *814:A *601:57 4.32144e-07
63 *821:A *601:77 1.75124e-05
64 *821:A *601:79 1.45919e-05
65 *821:S *821:B 6.38328e-07
66 *828:A *601:55 0
67 *828:S *601:9 5.1189e-05
68 *828:S *601:11 7.74262e-05
69 *828:S *601:13 5.59765e-05
70 *835:A *601:65 0
71 *856:A *601:81 4.32819e-05
72 *856:S *849:B 9.61765e-05
73 *887:A1 *758:B 0
74 *887:B2 *601:59 4.97191e-06
75 *887:B2 *601:65 3.35822e-05
76 *888:A1 *601:71 0
77 *889:B1 *601:81 1.21105e-05
78 *889:B2 *601:81 6.32461e-06
79 *890:A2 *601:57 1.26998e-05
80 *890:A2 *601:59 7.19036e-06
81 *890:A2 *601:65 2.80727e-05
82 *890:A4 *800:B 2.52965e-06
83 *890:A4 *601:71 2.45863e-07
84 *891:A1 *601:55 6.02276e-05
85 *891:A1 *601:57 4.37043e-05
86 *891:B1 *601:57 7.80204e-05
87 *891:B2 *601:57 1.6362e-05
88 *986:D *849:B 3.26972e-05
89 *994:D *849:B 3.24801e-05
90 *1010:D *601:57 3.78433e-05
91 *1042:D *807:B 7.19234e-06
92 *1050:D *601:65 2.36192e-06
93 *1074:D *842:B 7.62806e-06
94 *1082:D *772:B 1.21774e-06
95 *1090:D *772:B 0
96 *1098:D *758:B 3.96215e-05
97 *178:115 *758:B 0
98 *178:115 *807:B 0
99 *178:115 *601:55 1.69294e-05
100 *178:115 *601:57 1.56664e-05
101 *178:115 *601:65 3.23723e-07
102 *184:104 *758:B 1.05415e-05
103 *190:165 *601:65 1.36993e-05
104 *190:165 *601:71 0.00017926
105 *199:33 *772:B 0.000133655
106 *199:33 *601:77 0
107 *199:33 *601:81 0
108 *203:35 *601:71 0
109 *203:35 *601:77 0
110 *209:31 *863:B 3.30047e-06
111 *212:65 *863:B 1.33939e-05
112 *222:111 *772:B 1.72426e-05
113 *222:111 *601:89 0
114 *222:121 *772:B 0.000121739
115 *225:26 *772:B 0
116 *226:86 *800:B 0
117 *230:35 *601:89 0
118 *247:10 *601:81 1.4293e-06
119 *250:12 *601:79 1.10205e-05
120 *250:12 *601:81 5.10087e-06
121 *253:12 *601:55 0
122 *255:14 *800:B 3.85541e-05
123 *456:24 *601:7 0
124 *466:10 *601:71 6.84237e-06
125 *506:8 *758:B 0
126 *538:10 *758:B 0.000129787
127 *578:10 *601:65 0
128 *578:10 *601:71 0
129 *591:8 *842:B 0
130 *591:8 *601:23 0
*RES
1 wr_data[1] *601:7 43.4822 
2 *601:7 *601:9 5.67857 
3 *601:9 *601:11 4.32143 
4 *601:11 *601:13 6.35715 
5 *601:13 *601:23 39.5714 
6 *601:23 *842:B 16.1786 
7 *601:23 *779:B 5 
8 *601:13 *786:B 10 
9 *601:11 *828:B 10 
10 *601:9 *601:55 20.75 
11 *601:55 *601:57 20.25 
12 *601:57 *601:59 0.75 
13 *601:59 *601:65 15.2857 
14 *601:65 *601:71 20.0714 
15 *601:71 *601:77 12.7143 
16 *601:77 *601:79 7.03572 
17 *601:79 *601:81 13.8214 
18 *601:81 *601:83 1.60714 
19 *601:83 *601:89 10.6786 
20 *601:89 *772:B 26.7857 
21 *601:89 *765:A 5 
22 *601:83 *849:B 27.8571 
23 *601:81 *856:B 11.25 
24 *601:79 *863:B 15.75 
25 *601:77 *821:B 11.25 
26 *601:71 *793:B 5 
27 *601:65 *800:B 13.75 
28 *601:59 *758:B 31.7857 
29 *601:57 *835:B 5 
30 *601:55 *814:B 5 
31 *601:7 *807:B 22.7857 
*END

*D_NET *602 0.00743656
*CONN
*P wr_data[2] I
*I *801:B I *D MUX2_X1
*I *829:B I *D MUX2_X1
*I *759:B I *D MUX2_X1
*I *808:B I *D MUX2_X1
*I *864:B I *D MUX2_X1
*I *780:B I *D MUX2_X1
*I *822:B I *D MUX2_X1
*I *836:B I *D MUX2_X1
*I *815:B I *D MUX2_X1
*I *843:B I *D MUX2_X1
*I *850:B I *D MUX2_X1
*I *766:A I *D MUX2_X1
*I *773:B I *D MUX2_X1
*I *787:B I *D MUX2_X1
*I *857:B I *D MUX2_X1
*I *794:B I *D MUX2_X1
*CAP
1 wr_data[2] 0.000433869
2 *801:B 7.1594e-05
3 *829:B 7.58829e-05
4 *759:B 0.000130585
5 *808:B 0
6 *864:B 0.000282508
7 *780:B 8.06549e-06
8 *822:B 2.94177e-05
9 *836:B 0
10 *815:B 8.21263e-05
11 *843:B 1.0396e-05
12 *850:B 8.74266e-05
13 *766:A 0.000142525
14 *773:B 0
15 *787:B 0
16 *857:B 5.42377e-06
17 *794:B 0
18 *602:168 0.000306866
19 *602:166 0.00020515
20 *602:153 8.89425e-05
21 *602:142 0.000116953
22 *602:118 0.000200009
23 *602:114 0.000216852
24 *602:110 0.000217326
25 *602:95 0.000193856
26 *602:84 0.0002
27 *602:62 0.000193289
28 *602:58 0.000219246
29 *602:47 0.000191114
30 *602:32 0.000139698
31 *602:21 0.000305884
32 *602:15 0.000294287
33 *602:13 0.000433869
34 *759:B *1043:CK 1.61803e-06
35 *766:A *618:37 1.83053e-06
36 *780:B *630:35 1.87418e-05
37 *815:B *936:B1 5.52692e-06
38 *815:B *1035:CK 9.24246e-06
39 *815:B *635:8 2.16072e-07
40 *815:B *635:27 4.21607e-06
41 *815:B *635:35 0
42 *829:B *632:70 2.56243e-06
43 *843:B *616:45 1.25189e-05
44 *850:B *846:B 1.19839e-05
45 *850:B *846:S 0
46 *850:B *850:S 3.19164e-07
47 *850:B *617:18 4.77786e-06
48 *857:B *634:22 7.72792e-06
49 *602:21 *1059:CK 0
50 *602:21 *634:22 0
51 *602:32 *618:16 3.1081e-06
52 *602:32 *618:20 5.52692e-06
53 *602:32 *634:22 0
54 *602:47 *787:S 3.01743e-06
55 *602:58 *846:S 0
56 *602:58 *1091:CK 0
57 *602:58 *634:12 2.78843e-05
58 *602:58 *634:22 0
59 *602:84 *634:10 5.48976e-06
60 *602:84 *634:12 1.17838e-05
61 *602:95 *634:10 6.9251e-05
62 *602:110 *628:16 6.9524e-05
63 *602:110 *633:63 3.69346e-06
64 *602:114 *628:16 0.000154226
65 *602:114 *633:46 1.07633e-05
66 *602:118 *1035:CK 0
67 *602:118 *633:48 1.94716e-05
68 *602:118 *633:52 1.13134e-05
69 *602:118 *633:56 5.52959e-06
70 *602:118 *635:8 4.00337e-06
71 *602:142 *628:16 0.000204871
72 *602:142 *633:46 4.01614e-05
73 *602:153 *628:10 3.6182e-06
74 *602:153 *628:16 1.88758e-05
75 *602:166 *628:10 4.49792e-05
76 *759:A *759:B 3.82629e-05
77 *773:A *602:62 6.48216e-07
78 *773:S *766:A 7.24968e-06
79 *787:A *602:47 4.24402e-05
80 *794:A *602:21 8.56032e-06
81 *794:S *602:32 0
82 *801:S *801:B 3.14607e-05
83 *802:S *766:A 8.99394e-06
84 *815:S *602:110 4.12796e-06
85 *822:A *822:B 2.16072e-07
86 *829:A *829:B 2.67716e-05
87 *836:A *815:B 4.24402e-05
88 *843:A *602:95 4.18985e-05
89 *843:A *602:110 0.000125437
90 *846:A *602:58 0
91 *857:A *857:B 1.40196e-06
92 *857:A *602:32 4.13157e-05
93 *857:A *602:47 0.000114492
94 *899:A2 *766:A 0.00019545
95 *900:B1 *602:110 1.88334e-06
96 *900:B2 *829:B 1.13395e-05
97 *900:B2 *602:110 7.34771e-05
98 *901:A1 *850:B 7.72537e-06
99 *901:B2 *602:47 3.02372e-05
100 *902:A2 *766:A 0
101 *902:A2 *602:84 0
102 *902:A2 *602:95 0
103 *902:A4 *850:B 9.01846e-07
104 *904:A1 *759:B 7.72792e-06
105 *904:A2 *759:B 1.26998e-05
106 *904:B1 *759:B 5.24655e-06
107 *904:B2 *759:B 7.87971e-06
108 *905:A3 *759:B 1.2358e-05
109 *905:A3 *864:B 2.52965e-06
110 *905:A3 *602:168 9.92691e-06
111 *938:A1 *815:B 1.6538e-05
112 *939:A2 *864:B 0
113 *942:A *864:B 1.55645e-05
114 *987:D *602:32 4.19057e-06
115 *987:D *602:47 1.88479e-06
116 *995:D *850:B 1.36766e-05
117 *995:D *602:58 0
118 *1003:D *602:95 1.55619e-05
119 *1003:D *602:110 1.14365e-05
120 *1019:D *829:B 6.88146e-06
121 *1043:D *759:B 4.52204e-05
122 *1051:D *801:B 9.05228e-06
123 *1059:D *602:21 1.57087e-05
124 *1083:D *602:58 1.08208e-05
125 *1083:D *602:84 3.21546e-06
126 *1099:D *759:B 5.31851e-05
127 *1099:D *602:166 1.57425e-06
128 *188:64 *759:B 2.61135e-05
129 *190:22 *864:B 1.59118e-05
130 *190:30 *829:B 0
131 *190:30 *843:B 9.57492e-07
132 *190:30 *602:114 7.86268e-05
133 *190:95 *602:114 1.27467e-05
134 *191:62 *759:B 3.09411e-06
135 *193:73 *864:B 8.66067e-05
136 *206:18 *864:B 3.25614e-06
137 *208:36 *766:A 1.06486e-06
138 *216:24 *602:118 1.28122e-06
139 *218:18 *759:B 7.72792e-06
140 *218:18 *864:B 7.19036e-06
141 *218:18 *602:168 3.16101e-05
142 *223:35 *822:B 3.08753e-05
143 *224:10 *864:B 4.42834e-05
144 *224:29 *822:B 3.51992e-06
145 *225:63 *602:153 7.35408e-06
146 *225:63 *602:166 2.17999e-05
147 *225:67 *602:142 1.63486e-05
148 *225:67 *602:153 2.84765e-06
149 *226:18 *801:B 2.45158e-05
150 *228:10 *864:B 2.35034e-05
151 *232:14 *602:114 0
152 *258:24 *850:B 6.4319e-05
153 *258:24 *602:58 0
154 *258:24 *602:62 0
155 *262:10 *602:95 1.89625e-05
156 *262:10 *602:110 1.93974e-05
157 *292:12 *780:B 1.87418e-05
158 *502:8 *829:B 0
159 *515:8 *602:47 2.52965e-06
160 *515:8 *602:58 1.67419e-05
161 *563:12 *815:B 0
162 *563:12 *602:118 2.34846e-05
*RES
1 wr_data[2] *602:13 47.2143 
2 *602:13 *602:15 5 
3 *602:15 *602:21 27.7857 
4 *602:21 *794:B 5 
5 *602:21 *602:32 13.5714 
6 *602:32 *857:B 10.75 
7 *602:32 *602:47 13.4643 
8 *602:47 *787:B 5 
9 *602:47 *602:58 20.5714 
10 *602:58 *602:62 9.75 
11 *602:62 *773:B 5 
12 *602:62 *766:A 32.4643 
13 *602:58 *602:84 2.96429 
14 *602:84 *850:B 21.25 
15 *602:84 *602:95 12.4643 
16 *602:95 *843:B 11.25 
17 *602:95 *602:110 21.3214 
18 *602:110 *602:114 13.3929 
19 *602:114 *602:118 17.75 
20 *602:118 *815:B 23.8571 
21 *602:118 *836:B 5 
22 *602:114 *602:142 11.8571 
23 *602:142 *822:B 13.25 
24 *602:142 *602:153 3.64286 
25 *602:153 *780:B 11.75 
26 *602:153 *602:166 12.0357 
27 *602:166 *602:168 3.25 
28 *602:168 *864:B 40.0786 
29 *602:168 *808:B 5 
30 *602:166 *759:B 22.25 
31 *602:110 *829:B 13.6786 
32 *602:15 *801:B 19.0714 
*END

*D_NET *603 0.00867853
*CONN
*P wr_data[3] I
*I *774:B I *D MUX2_X1
*I *844:B I *D MUX2_X1
*I *851:B I *D MUX2_X1
*I *767:A I *D MUX2_X1
*I *760:B I *D MUX2_X1
*I *816:B I *D MUX2_X1
*I *809:B I *D MUX2_X1
*I *837:B I *D MUX2_X1
*I *788:B I *D MUX2_X1
*I *830:B I *D MUX2_X1
*I *823:B I *D MUX2_X1
*I *865:B I *D MUX2_X1
*I *795:B I *D MUX2_X1
*I *802:B I *D MUX2_X1
*I *781:B I *D MUX2_X1
*I *858:B I *D MUX2_X1
*CAP
1 wr_data[3] 0.000454925
2 *774:B 0
3 *844:B 9.48018e-05
4 *851:B 5.97771e-05
5 *767:A 4.88962e-06
6 *760:B 0
7 *816:B 5.42445e-05
8 *809:B 7.52163e-05
9 *837:B 4.08115e-06
10 *788:B 3.31297e-05
11 *830:B 4.29106e-05
12 *823:B 3.17461e-05
13 *865:B 1.90286e-05
14 *795:B 2.90293e-05
15 *802:B 0.000140888
16 *781:B 0
17 *858:B 2.69087e-05
18 *603:194 0.000178251
19 *603:183 7.3655e-05
20 *603:181 9.08613e-05
21 *603:163 0.000106268
22 *603:148 0.000146304
23 *603:137 0.000119473
24 *603:124 0.000181689
25 *603:111 0.000180865
26 *603:96 0.000156068
27 *603:85 0.000352775
28 *603:83 0.00064383
29 *603:42 0.000166597
30 *603:31 8.73227e-05
31 *603:27 9.65485e-05
32 *603:21 0.000538727
33 *603:9 0.000222986
34 *603:5 0.000474913
35 *767:A *626:57 1.87637e-06
36 *795:B *636:26 6.11214e-05
37 *802:B *1052:CK 2.39679e-06
38 *816:B *816:S 6.38328e-07
39 *830:B *641:10 7.72537e-06
40 *844:B *844:S 5.54369e-05
41 *844:B *607:60 0
42 *844:B *619:54 2.39679e-06
43 *844:B *619:67 4.79358e-06
44 *851:B *851:S 1.39839e-06
45 *851:B *626:57 0
46 *858:B *618:56 6.77755e-05
47 *603:5 *607:41 6.70842e-06
48 *603:21 *626:51 2.34391e-05
49 *603:27 *618:56 1.6345e-05
50 *603:27 *636:26 9.26282e-06
51 *603:31 *618:37 0
52 *603:31 *618:56 4.81412e-05
53 *603:42 *636:26 0
54 *603:83 *1003:CK 1.85799e-05
55 *603:83 *626:33 8.14361e-05
56 *603:83 *636:10 4.40064e-06
57 *603:83 *636:12 8.92676e-06
58 *603:83 *636:14 1.47768e-05
59 *603:83 *636:26 6.20416e-06
60 *603:83 *637:41 2.08098e-06
61 *603:85 *865:S 8.64532e-05
62 *603:85 *622:48 4.16464e-05
63 *603:85 *626:33 2.3562e-05
64 *603:124 *641:10 0.000104676
65 *603:124 *641:19 4.42084e-06
66 *603:137 *1012:CK 3.91119e-05
67 *603:137 *641:19 5.00437e-05
68 *603:163 *760:S 0
69 *603:183 *626:57 1.88001e-05
70 *717:A1 *823:B 0
71 *719:B2 *603:5 5.64879e-06
72 *719:B2 *603:181 0
73 *766:S *802:B 3.84002e-06
74 *766:S *858:B 1.55508e-05
75 *766:S *603:42 1.73568e-05
76 *767:B *603:194 4.25509e-05
77 *767:S *767:A 2.75346e-06
78 *767:S *603:183 4.97191e-06
79 *769:B *603:83 1.92438e-05
80 *774:A *603:21 4.30548e-05
81 *776:A *802:B 0
82 *781:S *603:31 3.09411e-06
83 *795:A *795:B 2.14856e-06
84 *795:A *603:27 7.65279e-06
85 *795:S *795:B 1.98425e-05
86 *802:A *802:B 1.70217e-05
87 *823:A *823:B 8.43215e-07
88 *823:S *823:B 4.44339e-06
89 *823:S *865:B 0
90 *830:A *603:111 1.17937e-06
91 *837:S *603:137 3.66859e-06
92 *844:A *844:B 2.16072e-07
93 *851:A *844:B 0
94 *858:A *795:B 5.11191e-06
95 *858:A *858:B 0
96 *858:A *603:27 1.82068e-05
97 *858:A *603:31 1.19839e-05
98 *858:A *603:42 0
99 *907:B2 *603:21 1.87736e-05
100 *908:A1 *603:21 2.30029e-05
101 *908:B2 *603:27 5.94167e-07
102 *908:B2 *603:83 1.34913e-06
103 *909:A1 *844:B 1.94663e-05
104 *909:B1 *844:B 0
105 *909:B1 *851:B 0
106 *909:B1 *603:183 0
107 *909:B2 *851:B 7.35445e-06
108 *910:A1 *802:B 2.05585e-05
109 *912:B1 *603:137 1.27404e-06
110 *912:B1 *603:148 1.11958e-06
111 *913:A1 *809:B 2.52965e-06
112 *913:A1 *837:B 7.72537e-06
113 *913:A1 *603:148 2.84577e-05
114 *913:A1 *603:163 7.58809e-05
115 *915:B2 *823:B 0
116 *931:B2 *603:85 4.00808e-06
117 *935:A4 *603:85 5.34817e-05
118 *962:RN *816:B 1.18608e-05
119 *962:RN *603:163 6.48216e-07
120 *980:D *865:B 2.39679e-06
121 *1000:D *844:B 0
122 *1012:D *809:B 3.85541e-05
123 *1020:D *830:B 1.74293e-05
124 *1022:D *603:83 2.89018e-05
125 *1028:D *823:B 2.16072e-07
126 *1028:D *603:96 5.56936e-06
127 *1028:D *603:111 6.9451e-06
128 *1052:D *802:B 1.86809e-06
129 *1060:D *795:B 1.16229e-06
130 *1084:D *603:21 7.11905e-07
131 *1084:D *603:181 9.15616e-06
132 *1084:D *603:194 1.62705e-06
133 *1088:D *603:5 3.05921e-05
134 *1092:D *844:B 3.47058e-06
135 *1092:D *603:21 6.32461e-06
136 *1092:D *603:194 3.10551e-06
137 *1094:D *603:83 0
138 *1173:A *603:21 3.4322e-05
139 *178:70 *603:85 0.000308091
140 *178:70 *603:96 9.93819e-05
141 *178:70 *603:111 0.000159845
142 *184:52 *809:B 0.000110409
143 *184:52 *816:B 0
144 *188:64 *603:85 1.18233e-06
145 *188:126 *603:124 1.64641e-05
146 *188:126 *603:137 2.22712e-05
147 *188:126 *603:148 3.87831e-06
148 *188:134 *603:163 0
149 *191:29 *603:124 4.12796e-06
150 *193:38 *603:85 5.8096e-07
151 *193:38 *603:96 8.20753e-06
152 *193:38 *603:111 1.54983e-05
153 *193:38 *603:137 1.23516e-06
154 *193:65 *603:85 0.000156982
155 *195:16 *603:111 4.71752e-06
156 *195:16 *603:137 5.51369e-06
157 *196:8 *788:B 3.76691e-05
158 *196:20 *603:85 4.61052e-05
159 *196:28 *603:83 2.60427e-05
160 *196:28 *603:85 0.000176269
161 *202:27 *809:B 2.87703e-06
162 *202:27 *837:B 7.72537e-06
163 *202:27 *603:137 1.64534e-06
164 *203:29 *830:B 6.99999e-05
165 *203:29 *603:124 4.10362e-05
166 *212:18 *865:B 2.2287e-05
167 *212:22 *603:85 7.32406e-05
168 *212:32 *603:85 1.045e-05
169 *222:18 *802:B 2.76448e-06
170 *225:80 *802:B 4.78398e-05
171 *225:80 *603:42 7.59822e-06
172 *225:84 *603:42 3.59429e-05
173 *225:97 *603:9 3.65322e-06
174 *225:97 *603:21 0.000178324
175 *225:97 *603:31 1.38323e-05
176 *232:38 *603:181 1.77122e-05
177 *232:50 *603:9 3.85541e-05
178 *232:50 *603:21 7.72537e-06
179 *234:41 *788:B 1.20176e-05
180 *234:41 *830:B 3.5108e-06
181 *234:41 *603:124 3.19164e-07
182 *290:12 *603:83 0.000199629
183 *290:12 *603:85 0.000162618
184 *500:26 *603:21 4.12459e-06
185 *500:26 *603:83 3.29362e-06
186 *508:10 *603:163 4.32298e-05
187 *520:6 *603:9 2.80727e-05
188 *524:10 *844:B 0
189 *580:8 *802:B 9.93367e-06
*RES
1 wr_data[3] *603:5 51.2322 
2 *603:5 *603:9 8.75 
3 *603:9 *603:21 39.9286 
4 *603:21 *603:27 9.71429 
5 *603:27 *603:31 10.25 
6 *603:31 *858:B 14.3214 
7 *603:31 *603:42 4.32143 
8 *603:42 *781:B 10 
9 *603:42 *802:B 25.0714 
10 *603:27 *795:B 19.3929 
11 *603:21 *603:83 43.0536 
12 *603:83 *603:85 48.7679 
13 *603:85 *865:B 12.25 
14 *603:85 *603:96 5.67857 
15 *603:96 *823:B 13.1786 
16 *603:96 *603:111 16.1071 
17 *603:111 *830:B 11.75 
18 *603:111 *603:124 13.5714 
19 *603:124 *788:B 14.5 
20 *603:124 *603:137 10.4286 
21 *603:137 *837:B 10.75 
22 *603:137 *603:148 2.28572 
23 *603:148 *809:B 20.75 
24 *603:148 *603:163 12.1071 
25 *603:163 *816:B 10.75 
26 *603:163 *760:B 5 
27 *603:9 *603:181 14.3214 
28 *603:181 *603:183 5.25 
29 *603:183 *767:A 5.75 
30 *603:183 *603:194 7.96429 
31 *603:194 *851:B 16.1786 
32 *603:194 *844:B 21.1786 
33 *603:181 *774:B 5 
*END

*D_NET *604 0.00837584
*CONN
*P wr_data[4] I
*I *831:B I *D MUX2_X1
*I *761:B I *D MUX2_X1
*I *852:B I *D MUX2_X1
*I *824:B I *D MUX2_X1
*I *845:B I *D MUX2_X1
*I *838:B I *D MUX2_X1
*I *810:B I *D MUX2_X1
*I *782:B I *D MUX2_X1
*I *859:B I *D MUX2_X1
*I *789:B I *D MUX2_X1
*I *768:A I *D MUX2_X1
*I *796:B I *D MUX2_X1
*I *866:B I *D MUX2_X1
*I *817:B I *D MUX2_X1
*I *803:B I *D MUX2_X1
*I *775:B I *D MUX2_X1
*CAP
1 wr_data[4] 0.000399662
2 *831:B 0
3 *761:B 0
4 *852:B 0
5 *824:B 0
6 *845:B 0.000166389
7 *838:B 4.92831e-06
8 *810:B 0.000130114
9 *782:B 0
10 *859:B 6.42521e-05
11 *789:B 7.6517e-05
12 *768:A 5.79224e-05
13 *796:B 2.28979e-05
14 *866:B 6.42909e-05
15 *817:B 6.07385e-06
16 *803:B 0
17 *775:B 5.95481e-05
18 *604:196 0.00024719
19 *604:192 0.00013009
20 *604:137 0.000162839
21 *604:122 0.000184123
22 *604:107 0.0001744
23 *604:101 0.000176011
24 *604:88 0.000333419
25 *604:80 0.000278593
26 *604:76 0.000173378
27 *604:74 0.000277318
28 *604:63 0.000112087
29 *604:59 0.000203369
30 *604:36 0.00036744
31 *604:19 0.000324277
32 *604:13 0.000426807
33 *604:9 0.000764253
34 *768:A *607:9 0
35 *768:A *644:66 1.4891e-05
36 *775:B *645:80 6.84316e-05
37 *789:B *777:B 0
38 *789:B *789:S 5.62244e-05
39 *789:B *945:A2 4.21607e-06
40 *789:B *606:87 0
41 *810:B *1045:CK 1.18608e-05
42 *810:B *628:88 9.68181e-06
43 *810:B *644:151 3.76093e-06
44 *838:B *628:88 7.19036e-06
45 *845:B *950:A2 2.52965e-06
46 *845:B *632:56 1.2631e-05
47 *845:B *633:281 0
48 *845:B *633:285 0
49 *845:B *643:35 2.89018e-05
50 *859:B *859:S 1.40279e-05
51 *859:B *861:S 1.65264e-05
52 *859:B *618:79 2.69996e-05
53 *859:B *644:55 1.73151e-05
54 *866:B *854:S 0.000128181
55 *866:B *981:CK 4.81463e-05
56 *866:B *642:72 6.11142e-05
57 *604:9 *606:7 0
58 *604:36 *963:CK 1.97923e-05
59 *604:36 *965:CK 4.45934e-05
60 *604:36 *645:80 1.29947e-05
61 *604:36 *645:89 0.000184592
62 *604:59 *1053:CK 1.0303e-05
63 *604:59 *1101:CK 1.70654e-05
64 *604:59 *621:61 3.99099e-05
65 *604:63 *621:61 0
66 *604:76 *770:A 2.94435e-05
67 *604:76 *606:178 0.000131821
68 *604:88 *628:88 4.91498e-06
69 *604:101 *854:S 3.28714e-05
70 *604:122 *618:79 9.35698e-05
71 *604:137 *618:79 3.66923e-05
72 *604:192 *950:A2 0
73 *604:196 *950:A2 2.61827e-06
74 *761:A *604:59 1.75824e-05
75 *763:S *604:76 0
76 *768:B *768:A 1.96924e-05
77 *768:B *789:B 0
78 *768:S *768:A 3.22834e-06
79 *768:S *796:B 0
80 *775:A *775:B 7.16188e-07
81 *784:S *789:B 0
82 *784:S *604:122 9.3226e-07
83 *796:A *796:B 6.70982e-05
84 *796:A *604:107 1.72426e-05
85 *796:A *604:122 3.90891e-05
86 *803:A *604:36 2.16072e-07
87 *824:A *845:B 4.10452e-05
88 *824:S *845:B 9.58715e-06
89 *831:A *604:19 0
90 *831:A *604:36 0
91 *831:S *775:B 0
92 *838:A *604:76 3.45614e-05
93 *838:A *604:80 2.96955e-05
94 *838:S *604:76 2.46673e-05
95 *852:A *604:196 1.62192e-05
96 *854:A *604:88 6.01359e-05
97 *854:A *604:101 1.87369e-06
98 *859:A *859:B 0.000124403
99 *859:A *604:137 7.72537e-06
100 *919:A1 *604:59 9.08971e-06
101 *922:B2 *604:36 0
102 *923:A3 *817:B 7.19036e-06
103 *923:A3 *604:63 1.4491e-05
104 *923:A3 *604:74 0
105 *923:A4 *604:36 0
106 *924:A2 *866:B 9.55734e-06
107 *924:A2 *604:101 1.39292e-05
108 *926:A1 *604:101 0
109 *926:A1 *604:107 0
110 *926:A1 *604:122 5.50692e-06
111 *926:A2 *604:101 0
112 *926:B2 *604:122 4.91218e-05
113 *926:B2 *604:137 1.22428e-05
114 *929:A2 *604:36 0
115 *930:B1 *604:36 6.85774e-07
116 *930:B2 *604:36 7.72537e-06
117 *943:A1 *775:B 0
118 *953:A1 *775:B 3.50308e-05
119 *953:A1 *604:19 1.28122e-06
120 *953:A1 *604:36 2.09871e-05
121 *953:A3 *775:B 1.39839e-06
122 *954:B2 *604:36 0
123 *963:D *604:36 7.66905e-06
124 *965:D *604:36 3.85541e-05
125 *981:D *604:88 4.16195e-06
126 *989:D *768:A 0
127 *1005:D *845:B 1.20474e-05
128 *1013:D *604:76 8.07734e-06
129 *1013:D *604:80 1.07633e-05
130 *1015:D *604:76 2.96081e-05
131 *1021:D *604:19 4.69891e-06
132 *1037:D *604:63 6.38328e-07
133 *1045:D *810:B 3.33264e-05
134 *1053:D *604:59 3.93734e-05
135 *1093:D *768:A 1.78436e-06
136 *1101:D *604:59 1.06785e-05
137 *1101:D *604:63 1.21774e-06
138 *1172:A *845:B 0
139 *181:54 *810:B 2.23871e-06
140 *181:73 *810:B 6.38328e-07
141 *199:37 *604:74 0.000147093
142 *199:37 *604:76 0.000106082
143 *199:48 *604:76 1.19015e-05
144 *199:48 *604:101 0
145 *206:62 *845:B 4.2299e-06
146 *216:104 *604:76 2.78068e-05
147 *223:83 *845:B 1.68643e-06
148 *223:83 *604:192 6.44811e-05
149 *223:83 *604:196 0.00010616
150 *223:96 *604:74 0
151 *224:40 *845:B 0.00011365
152 *224:96 *845:B 3.97093e-05
153 *225:26 *604:59 0
154 *225:101 *604:122 8.43215e-07
155 *227:106 *796:B 2.61185e-05
156 *227:106 *604:88 5.26581e-05
157 *227:106 *604:101 4.00918e-05
158 *227:106 *604:107 2.65286e-05
159 *232:67 *796:B 7.19036e-06
160 *232:138 *604:36 0
161 *232:138 *604:59 0
162 *302:14 *810:B 2.88159e-06
163 *302:14 *604:88 6.07779e-06
164 *303:12 *775:B 5.54369e-05
165 *309:22 *604:19 0
166 *309:22 *604:36 4.21607e-06
167 *527:10 *604:88 3.02296e-05
168 *543:8 *604:76 0
169 *559:8 *845:B 0
170 *600:29 *604:63 9.3409e-06
*RES
1 wr_data[4] *604:9 47.8036 
2 *604:9 *604:13 43.25 
3 *604:13 *604:19 11.1786 
4 *604:19 *775:B 19.1429 
5 *604:19 *604:36 31.3572 
6 *604:36 *803:B 5 
7 *604:36 *604:59 21.8214 
8 *604:59 *604:63 5.17857 
9 *604:63 *817:B 5.75 
10 *604:63 *604:74 13.3929 
11 *604:74 *604:76 24 
12 *604:76 *604:80 6.60714 
13 *604:80 *604:88 28.75 
14 *604:88 *866:B 17.25 
15 *604:88 *604:101 19.8571 
16 *604:101 *604:107 6 
17 *604:107 *796:B 14.3929 
18 *604:107 *604:122 21.25 
19 *604:122 *768:A 21.25 
20 *604:122 *604:137 3.75 
21 *604:137 *789:B 23.2857 
22 *604:137 *859:B 25.3214 
23 *604:101 *782:B 10 
24 *604:80 *810:B 19.25 
25 *604:76 *838:B 10.75 
26 *604:74 *604:192 11.25 
27 *604:192 *604:196 11.1786 
28 *604:196 *845:B 35.9286 
29 *604:196 *824:B 5 
30 *604:192 *852:B 5 
31 *604:59 *761:B 5 
32 *604:13 *831:B 5 
*END

*D_NET *605 0.00682884
*CONN
*P wr_data[5] I
*I *804:B I *D MUX2_X1
*I *797:B I *D MUX2_X1
*I *839:B I *D MUX2_X1
*I *762:B I *D MUX2_X1
*I *853:B I *D MUX2_X1
*I *783:B I *D MUX2_X1
*I *832:B I *D MUX2_X1
*I *825:B I *D MUX2_X1
*I *818:B I *D MUX2_X1
*I *811:B I *D MUX2_X1
*I *860:B I *D MUX2_X1
*I *769:A I *D MUX2_X1
*I *776:B I *D MUX2_X1
*I *846:B I *D MUX2_X1
*I *790:B I *D MUX2_X1
*I *867:B I *D MUX2_X1
*CAP
1 wr_data[5] 0.000441535
2 *804:B 0
3 *797:B 0
4 *839:B 6.71506e-05
5 *762:B 7.58873e-05
6 *853:B 0
7 *783:B 6.82914e-05
8 *832:B 3.94982e-06
9 *825:B 7.85178e-05
10 *818:B 7.03766e-05
11 *811:B 1.42369e-05
12 *860:B 4.05807e-05
13 *769:A 6.09993e-06
14 *776:B 0
15 *846:B 5.4142e-05
16 *790:B 0
17 *867:B 0.000110063
18 *605:177 0.000186005
19 *605:170 9.04705e-05
20 *605:146 9.2089e-05
21 *605:113 0.000122198
22 *605:111 0.000189244
23 *605:96 0.000267864
24 *605:90 0.000243032
25 *605:79 0.000158751
26 *605:68 0.000214886
27 *605:53 0.000352508
28 *605:42 0.000214378
29 *605:25 0.000237127
30 *605:23 0.000127277
31 *605:21 7.40603e-05
32 *605:13 0.000515596
33 *762:B *635:56 1.19024e-05
34 *762:B *635:69 0
35 *769:A *1003:CK 2.52965e-06
36 *783:B *633:46 2.56243e-06
37 *818:B *909:A2 1.74934e-05
38 *825:B *623:10 1.63545e-05
39 *839:B *853:S 2.88615e-06
40 *839:B *635:35 0
41 *846:B *846:S 9.57085e-06
42 *867:B *1070:CK 4.177e-06
43 *867:B *616:30 0
44 *867:B *634:54 7.2187e-06
45 *867:B *634:78 5.1735e-06
46 *605:21 *616:22 1.25431e-05
47 *605:25 *1070:CK 2.00486e-05
48 *605:42 *982:CK 2.39679e-06
49 *605:42 *1070:CK 4.9678e-06
50 *605:42 *634:78 3.23209e-05
51 *605:53 *787:S 2.55787e-06
52 *605:53 *1070:CK 5.70072e-05
53 *605:53 *1183:A 5.52959e-06
54 *605:53 *616:37 3.83909e-06
55 *605:53 *616:45 3.11032e-05
56 *605:53 *634:10 2.39679e-06
57 *605:68 *619:47 4.37924e-06
58 *605:68 *619:54 2.21715e-05
59 *605:68 *634:10 0
60 *605:79 *619:54 1.10426e-05
61 *605:170 *1070:CK 7.14424e-06
62 *605:170 *635:56 5.0313e-06
63 *605:177 *853:S 6.3924e-06
64 *605:177 *635:56 2.56243e-06
65 *719:A2 *811:B 7.72792e-06
66 *719:A2 *818:B 0
67 *776:A *605:68 1.21774e-06
68 *776:A *605:79 2.36748e-05
69 *783:A *783:B 8.64759e-06
70 *783:A *832:B 7.72537e-06
71 *783:A *605:96 6.38328e-07
72 *797:A *605:21 8.43215e-07
73 *804:A *605:13 7.16188e-07
74 *804:A *605:21 0
75 *811:A *811:B 5.56848e-05
76 *811:A *825:B 3.76189e-05
77 *811:A *605:113 0.000188593
78 *811:S *811:B 5.56848e-05
79 *811:S *605:113 2.80777e-05
80 *818:A *605:111 5.98684e-05
81 *825:A *825:B 7.16188e-07
82 *832:A *783:B 1.16629e-06
83 *832:A *605:96 3.28688e-05
84 *832:A *605:146 1.04048e-06
85 *839:A *839:B 2.16072e-07
86 *850:B *846:B 1.19839e-05
87 *853:A *762:B 0
88 *853:A *605:170 4.26902e-05
89 *853:A *605:177 6.48216e-07
90 *860:A *860:B 1.39839e-06
91 *860:A *605:96 1.43238e-06
92 *860:S *860:B 3.99261e-06
93 *860:S *605:96 6.0887e-06
94 *898:A1 *867:B 0
95 *900:B1 *605:96 1.94561e-05
96 *902:A4 *605:68 0
97 *932:A1 *825:B 0
98 *933:A1 *818:B 7.05152e-05
99 *933:A2 *818:B 5.96771e-05
100 *934:A1 *605:111 4.32144e-07
101 *934:B2 *605:111 1.28122e-06
102 *936:A1 *605:53 0
103 *937:A1 *605:25 2.0679e-05
104 *937:B2 *605:42 4.32144e-07
105 *937:B2 *605:53 2.56243e-06
106 *938:B1 *846:B 0.000155602
107 *938:B1 *605:53 4.99729e-05
108 *938:B2 *605:53 0
109 *939:A1 *762:B 2.16072e-07
110 *939:B2 *762:B 0
111 *939:B2 *839:B 0
112 *939:B2 *605:177 0
113 *982:D *867:B 3.30471e-05
114 *998:D *605:21 0
115 *1006:D *605:53 0
116 *1038:D *818:B 1.28987e-05
117 *1054:D *867:B 0
118 *1054:D *605:25 0
119 *1078:D *783:B 1.60843e-05
120 *1078:D *605:96 2.44581e-05
121 *1086:D *769:A 7.19036e-06
122 *178:12 *783:B 8.78713e-06
123 *178:12 *605:90 1.88334e-06
124 *178:12 *605:146 1.84823e-05
125 *178:16 *605:90 6.05615e-05
126 *178:20 *605:79 5.14107e-05
127 *178:20 *605:90 9.60849e-05
128 *181:31 *825:B 0.000219202
129 *181:31 *605:113 0.000166594
130 *190:95 *605:96 2.14856e-06
131 *190:97 *605:96 4.61282e-05
132 *190:97 *605:111 0
133 *222:18 *605:79 1.39858e-05
134 *223:60 *825:B 9.57492e-07
135 *224:29 *825:B 3.19164e-07
136 *225:80 *605:79 0.00011676
137 *225:80 *605:90 0.000265807
138 *225:80 *605:146 2.89018e-05
139 *226:16 *605:21 5.56848e-05
140 *226:16 *605:25 0
141 *226:16 *605:170 0
142 *226:18 *867:B 0
143 *227:30 *605:53 0
144 *228:18 *762:B 5.4579e-05
145 *258:24 *846:B 8.43215e-07
146 *260:18 *846:B 3.94694e-05
147 *260:18 *605:53 1.90405e-05
148 *291:14 *860:B 1.93096e-05
149 *291:14 *605:96 0
150 *291:14 *605:111 4.55949e-09
151 *462:6 *605:42 8.194e-06
152 *510:12 *762:B 4.32298e-05
153 *523:10 *605:53 0
154 *523:10 *605:68 3.51992e-06
155 *574:8 *860:B 0
156 *574:8 *605:111 1.86809e-06
*RES
1 wr_data[5] *605:13 47.8929 
2 *605:13 *605:21 18.7143 
3 *605:21 *605:23 5 
4 *605:23 *605:25 9.75 
5 *605:25 *867:B 21.7857 
6 *605:25 *605:42 10.6786 
7 *605:42 *790:B 5 
8 *605:42 *605:53 24.7143 
9 *605:53 *846:B 19.6429 
10 *605:53 *605:68 18.75 
11 *605:68 *776:B 5 
12 *605:68 *605:79 17.6071 
13 *605:79 *769:A 10.75 
14 *605:79 *605:90 14.5 
15 *605:90 *605:96 24.0357 
16 *605:96 *860:B 10.2857 
17 *605:96 *605:111 13.25 
18 *605:111 *605:113 10.4286 
19 *605:113 *811:B 13.7143 
20 *605:113 *818:B 20.75 
21 *605:111 *825:B 22.5357 
22 *605:90 *605:146 2.96429 
23 *605:146 *832:B 10.75 
24 *605:146 *783:B 17.8571 
25 *605:23 *605:170 11.3571 
26 *605:170 *853:B 5 
27 *605:170 *605:177 4.25 
28 *605:177 *762:B 25.5 
29 *605:177 *839:B 11.25 
30 *605:21 *797:B 5 
31 *605:13 *804:B 5 
*END

*D_NET *606 0.00707051
*CONN
*P wr_data[6] I
*I *763:B I *D MUX2_X1
*I *840:B I *D MUX2_X1
*I *826:B I *D MUX2_X1
*I *798:B I *D MUX2_X1
*I *770:A I *D MUX2_X1
*I *819:B I *D MUX2_X1
*I *833:B I *D MUX2_X1
*I *812:B I *D MUX2_X1
*I *791:B I *D MUX2_X1
*I *847:B I *D MUX2_X1
*I *861:B I *D MUX2_X1
*I *777:B I *D MUX2_X1
*I *805:B I *D MUX2_X1
*I *868:B I *D MUX2_X1
*I *854:B I *D MUX2_X1
*I *784:B I *D MUX2_X1
*CAP
1 wr_data[6] 0.000352725
2 *763:B 0
3 *840:B 0
4 *826:B 7.47017e-05
5 *798:B 8.71307e-06
6 *770:A 6.5958e-06
7 *819:B 3.89367e-05
8 *833:B 1.04227e-05
9 *812:B 1.60004e-05
10 *791:B 0
11 *847:B 1.97887e-05
12 *861:B 6.15432e-06
13 *777:B 0.000138469
14 *805:B 0
15 *868:B 5.49503e-05
16 *854:B 0
17 *784:B 7.09129e-05
18 *606:191 0.000168805
19 *606:178 0.000114526
20 *606:174 0.000191488
21 *606:166 0.000297468
22 *606:145 0.000336114
23 *606:87 0.000221729
24 *606:58 0.000206858
25 *606:48 0.000255969
26 *606:38 0.000188906
27 *606:36 0.000180777
28 *606:30 0.000163672
29 *606:15 0.000189982
30 *606:13 0.000172916
31 *606:11 0.000117567
32 *606:9 0.000599534
33 *606:7 0.000724726
34 *777:B *859:S 9.03567e-06
35 *777:B *644:55 0
36 *819:B *1039:CK 2.65226e-05
37 *861:B *861:S 9.62051e-07
38 *606:36 *791:S 2.17168e-05
39 *606:38 *944:A2 4.79358e-06
40 *606:38 *944:B1 1.27666e-06
41 *606:48 *847:S 1.27481e-05
42 *606:48 *944:A2 8.4818e-05
43 *606:48 *616:68 0
44 *606:48 *644:8 0
45 *606:58 *847:S 5.17904e-05
46 *606:87 *789:S 0
47 *606:87 *625:43 4.75044e-05
48 *606:145 *1039:CK 5.37652e-06
49 *606:166 *819:S 0
50 *606:166 *1039:CK 1.14751e-05
51 *606:166 *645:56 1.74934e-05
52 *606:174 *1015:CK 3.19164e-07
53 *606:174 *1063:CK 7.74932e-06
54 *606:174 *645:27 7.03251e-06
55 *606:174 *645:29 1.74274e-05
56 *606:174 *645:56 1.26998e-05
57 *606:191 *1063:CK 0
58 rd_data[4] *606:7 0
59 rd_data[6] *606:9 8.16741e-05
60 *666:A *606:9 0.00015885
61 *763:A *606:166 4.18985e-05
62 *770:B *606:191 2.39679e-06
63 *775:S *606:145 7.12794e-06
64 *777:A *777:B 7.16188e-07
65 *779:A *606:9 6.70842e-06
66 *784:A *784:B 7.16188e-07
67 *784:S *861:B 7.19036e-06
68 *789:A *606:87 0
69 *789:B *777:B 0
70 *789:B *606:87 0
71 *791:A *784:B 9.52324e-06
72 *791:A *606:15 1.11357e-05
73 *805:A *606:48 1.54476e-05
74 *812:A *812:B 7.16188e-07
75 *826:A *826:B 9.30692e-06
76 *831:A *606:9 3.17922e-05
77 *831:S *606:9 4.51787e-05
78 *831:S *606:11 1.41532e-05
79 *831:S *606:13 3.01743e-06
80 *833:A *606:11 1.71706e-05
81 *833:A *606:13 9.52324e-06
82 *833:A *606:145 0
83 *838:S *770:A 2.94435e-05
84 *838:S *606:178 7.772e-05
85 *859:A *777:B 0.000127948
86 *861:A *777:B 4.32298e-05
87 *861:A *606:87 2.06937e-05
88 *928:A2 *606:48 0
89 *943:A1 *606:145 6.59103e-05
90 *943:A2 *606:145 1.05133e-05
91 *943:B2 *606:145 6.0887e-06
92 *944:A1 *606:36 2.70013e-05
93 *944:A1 *606:38 1.19839e-05
94 *944:A1 *606:48 7.19036e-06
95 *944:A1 *606:87 2.89018e-05
96 *944:B2 *606:87 2.35968e-05
97 *945:A1 *606:87 6.89712e-05
98 *947:A2 *847:B 9.20479e-05
99 *947:A2 *606:87 4.16464e-05
100 *947:A3 *847:B 9.20479e-05
101 *947:A3 *606:87 3.98918e-06
102 *949:A2 *606:166 6.44217e-06
103 *950:B2 *606:174 6.38328e-07
104 *952:A3 *606:174 0
105 *952:A4 *606:145 0
106 *952:A4 *606:166 1.50966e-05
107 *952:A4 *606:174 1.74934e-05
108 *953:A3 *606:145 0
109 *989:D *777:B 0
110 *991:D *777:B 9.24246e-06
111 *1007:D *606:36 8.62472e-06
112 *1013:D *868:B 1.11168e-06
113 *1021:D *606:9 0
114 *1031:D *826:B 1.28003e-05
115 *1063:D *826:B 3.88456e-06
116 *1063:D *606:191 1.26461e-05
117 *1071:D *606:36 7.12794e-06
118 *1079:D *784:B 0
119 *1103:D *606:166 4.24381e-05
120 *178:26 *606:13 1.50871e-05
121 *178:26 *606:15 1.18471e-05
122 *190:97 *826:B 0
123 *190:97 *606:191 3.73504e-05
124 *190:101 *606:191 1.19839e-05
125 *199:48 *868:B 0
126 *199:48 *606:58 5.71421e-06
127 *199:48 *606:174 0
128 *216:104 *606:178 5.59765e-05
129 *226:110 *606:48 2.74211e-06
130 *227:106 *868:B 2.19256e-05
131 *227:106 *606:58 1.90574e-06
132 *302:14 *606:48 0
133 *302:14 *606:58 0
134 *479:10 *606:15 1.49198e-05
135 *567:8 *606:145 0
136 *567:8 *606:166 0
137 *575:8 *606:145 2.23871e-06
138 *601:23 *606:9 6.66862e-05
139 *604:9 *606:7 0
140 *604:76 *770:A 2.94435e-05
141 *604:76 *606:178 0.000131821
*RES
1 wr_data[6] *606:7 41.9822 
2 *606:7 *606:9 50.4643 
3 *606:9 *606:11 7.71429 
4 *606:11 *606:13 6.35715 
5 *606:13 *606:15 13.1429 
6 *606:15 *784:B 18.1071 
7 *606:15 *606:30 6.75 
8 *606:30 *606:36 18.2857 
9 *606:36 *606:38 1.25 
10 *606:38 *606:48 23.1429 
11 *606:48 *606:58 21.8571 
12 *606:58 *854:B 10 
13 *606:58 *868:B 16.3571 
14 *606:48 *805:B 5 
15 *606:38 *606:87 18.4643 
16 *606:87 *777:B 26 
17 *606:87 *861:B 10.75 
18 *606:36 *847:B 20 
19 *606:30 *791:B 5 
20 *606:13 *812:B 11.75 
21 *606:11 *833:B 11.75 
22 *606:9 *606:145 24.25 
23 *606:145 *819:B 9.35714 
24 *606:145 *606:166 25.7857 
25 *606:166 *606:174 16.8571 
26 *606:174 *606:178 12.0357 
27 *606:178 *770:A 11.6071 
28 *606:178 *606:191 15.25 
29 *606:191 *798:B 5.92857 
30 *606:191 *826:B 13.7143 
31 *606:174 *840:B 5 
32 *606:166 *763:B 5 
*END

*D_NET *607 0.00860388
*CONN
*P wr_data[7] I
*I *738:B I *D MUX2_X1
*I *752:B I *D MUX2_X1
*I *744:B I *D MUX2_X1
*I *740:B I *D MUX2_X1
*I *734:B I *D MUX2_X1
*I *724:B I *D MUX2_X1
*I *746:B I *D MUX2_X1
*I *682:B I *D MUX2_X1
*I *686:B I *D MUX2_X1
*I *736:B I *D MUX2_X1
*I *742:B I *D MUX2_X1
*I *756:B I *D MUX2_X1
*I *748:B I *D MUX2_X1
*I *754:B I *D MUX2_X1
*I *750:B I *D MUX2_X1
*I *732:A I *D MUX2_X1
*CAP
1 wr_data[7] 0.000348721
2 *738:B 0.000147751
3 *752:B 0
4 *744:B 4.82027e-05
5 *740:B 1.36693e-05
6 *734:B 9.5288e-05
7 *724:B 7.19997e-06
8 *746:B 0.000124795
9 *682:B 4.07596e-06
10 *686:B 0.000106178
11 *736:B 0
12 *742:B 9.90791e-05
13 *756:B 0
14 *748:B 0
15 *754:B 1.38021e-05
16 *750:B 0
17 *732:A 0
18 *607:165 0.000194424
19 *607:137 0.000232912
20 *607:120 0.000210219
21 *607:118 0.000198772
22 *607:112 0.00022018
23 *607:99 0.000158741
24 *607:82 0.000597741
25 *607:80 0.000516642
26 *607:69 0.00011292
27 *607:60 0.000140115
28 *607:54 0.000220713
29 *607:41 0.000192799
30 *607:35 0.000115036
31 *607:33 0.000200417
32 *607:20 0.000181799
33 *607:9 0.000359645
34 *607:7 0.000574925
35 *734:B *623:35 0
36 *734:B *647:101 5.7295e-06
37 *738:B *618:79 4.33476e-05
38 *738:B *624:71 3.85541e-05
39 *738:B *626:76 5.85453e-05
40 *738:B *627:71 1.45917e-05
41 *738:B *642:14 0
42 *738:B *642:20 2.75346e-06
43 *738:B *642:24 4.14859e-05
44 *740:B *631:66 2.66167e-05
45 *742:B *1028:CK 2.14856e-06
46 *742:B *1064:CK 0
47 *742:B *627:16 0
48 *744:B *619:105 6.99557e-06
49 *744:B *642:72 0
50 *754:B *617:62 7.19036e-06
51 *607:9 *644:66 0
52 *607:35 *618:79 7.19036e-06
53 *607:35 *642:24 4.79358e-06
54 *607:41 *617:43 5.81205e-05
55 *607:41 *617:62 4.05249e-05
56 *607:41 *618:58 4.33476e-05
57 *607:41 *618:79 4.79358e-06
58 *607:41 *642:24 4.86762e-05
59 *607:54 *719:B1 2.28488e-06
60 *607:60 *845:S 8.13785e-06
61 *607:60 *984:CK 1.32323e-05
62 *607:60 *1000:CK 0
63 *607:60 *616:49 0.000117843
64 *607:60 *619:73 0.000105381
65 *607:60 *619:105 2.10581e-05
66 *607:69 *845:S 1.06623e-05
67 *607:69 *616:49 6.7642e-05
68 *607:69 *616:66 1.68236e-05
69 *607:69 *628:52 1.2133e-05
70 *607:69 *632:64 1.52083e-06
71 *607:80 *632:56 2.03456e-05
72 *607:80 *632:64 1.21603e-05
73 *607:82 *920:A2 6.68482e-05
74 *607:82 *630:52 0.000106082
75 *607:82 *633:281 0
76 *607:82 *643:70 0
77 *607:82 *646:25 0
78 *607:99 *627:16 3.54695e-06
79 *607:112 *627:16 6.4324e-06
80 *607:118 *631:66 2.52126e-05
81 *698:A1 *734:B 5.44593e-06
82 *698:A1 *607:165 3.06052e-05
83 *698:A2 *734:B 1.11452e-06
84 *703:B2 *682:B 7.72792e-06
85 *703:B2 *607:137 5.43491e-06
86 *706:B1 *607:112 4.82355e-06
87 *707:A1 *724:B 1.32323e-05
88 *707:A4 *607:118 0
89 *707:A4 *607:165 0
90 *713:B2 *738:B 2.39679e-06
91 *713:B2 *754:B 4.32144e-07
92 *716:A1 *738:B 5.33077e-05
93 *719:A1 *738:B 2.50734e-06
94 *719:B2 *607:41 1.45398e-05
95 *719:B2 *607:54 6.49768e-05
96 *719:B2 *607:60 0
97 *720:A3 *607:41 0
98 *721:A1 *746:B 4.97446e-06
99 *721:A2 *724:B 5.52692e-06
100 *721:A2 *746:B 2.48889e-05
101 *721:A3 *746:B 2.99578e-06
102 *724:A *607:165 6.8992e-06
103 *724:S *607:165 2.05656e-05
104 *732:B *607:20 3.75939e-05
105 *736:A *607:99 0
106 *736:A *607:112 3.44472e-06
107 *740:A *607:112 6.4401e-06
108 *740:A *607:118 0
109 *740:A *607:137 7.87454e-06
110 *740:A *607:165 0
111 *742:A *742:B 3.83799e-05
112 *744:A *744:B 2.08416e-06
113 *746:A *746:B 7.66204e-06
114 *750:A *607:33 0.000115354
115 *752:A *738:B 1.24926e-06
116 *752:A *607:33 4.18985e-05
117 *768:A *607:9 0
118 *768:S *607:9 5.16632e-05
119 *768:S *607:20 2.39679e-06
120 *823:S *742:B 5.69818e-05
121 *823:S *607:99 6.07323e-06
122 *844:B *607:60 0
123 *845:A *607:82 4.80119e-06
124 *848:A *607:82 5.14178e-06
125 *848:B *607:82 5.52333e-05
126 *849:S *607:82 3.78853e-07
127 *891:B1 *682:B 7.72792e-06
128 *909:B1 *754:B 0
129 *909:B1 *607:54 9.40545e-06
130 *934:A1 *607:80 5.48594e-05
131 *977:D *607:82 2.698e-05
132 *984:D *744:B 0
133 *984:D *607:54 1.11898e-05
134 *984:D *607:60 0
135 *1016:D *734:B 3.18009e-05
136 *1024:D *746:B 1.04526e-05
137 *1024:D *607:137 1.73919e-05
138 *1032:D *742:B 2.23415e-06
139 *1032:D *607:99 2.25683e-05
140 *1048:D *686:B 0
141 *1056:D *607:118 4.24402e-05
142 *1061:D *607:9 1.18109e-05
143 *1064:D *742:B 1.1632e-05
144 *1072:D *607:69 7.00661e-06
145 *1072:D *607:80 6.21255e-06
146 *1088:D *607:41 9.77674e-06
147 *1096:D *607:20 0
148 *1104:D *734:B 1.1025e-05
149 *1172:A *607:80 1.09525e-06
150 *1172:A *607:82 0.000176046
151 *178:105 *607:137 8.34941e-06
152 *178:113 *746:B 9.66283e-05
153 *178:113 *607:137 6.0132e-05
154 *178:115 *746:B 3.75461e-05
155 *181:109 *686:B 2.02526e-05
156 *181:109 *607:137 1.65194e-05
157 *184:73 *734:B 2.07669e-05
158 *191:62 *607:82 1.15685e-06
159 *191:64 *607:80 9.88063e-05
160 *191:64 *607:82 2.59821e-06
161 *191:80 *607:80 7.92991e-05
162 *191:121 *607:165 5.09172e-06
163 *195:44 *686:B 0
164 *202:48 *686:B 1.80284e-05
165 *203:29 *740:B 2.36213e-05
166 *203:29 *607:118 2.77515e-05
167 *203:35 *740:B 1.87369e-06
168 *222:64 *738:B 3.28367e-05
169 *222:64 *607:9 2.39679e-06
170 *222:64 *607:20 3.94703e-05
171 *222:64 *607:33 0
172 *223:83 *607:82 2.49497e-05
173 *224:63 *607:99 6.38328e-07
174 *224:63 *607:112 6.50402e-06
175 *226:61 *607:112 1.71599e-05
176 *227:79 *607:80 0
177 *232:50 *607:41 9.14538e-05
178 *232:67 *607:20 0
179 *489:12 *607:82 2.69444e-05
180 *528:12 *754:B 2.16072e-07
181 *528:12 *607:60 1.55562e-05
182 *544:8 *734:B 7.00661e-06
183 *544:8 *607:165 2.60567e-06
184 *560:10 *607:112 1.23214e-06
185 *568:10 *746:B 5.19516e-05
186 *584:6 *686:B 2.23415e-06
187 *584:6 *607:137 1.60038e-06
188 *600:50 *607:82 2.63178e-05
189 *600:63 *607:82 2.94571e-05
190 *603:5 *607:41 6.70842e-06
*RES
1 wr_data[7] *607:7 44.6964 
2 *607:7 *607:9 25.25 
3 *607:9 *732:A 5 
4 *607:9 *607:20 16.6071 
5 *607:20 *750:B 5 
6 *607:20 *607:33 17.1071 
7 *607:33 *607:35 0.75 
8 *607:35 *607:41 20.8571 
9 *607:41 *754:B 11.25 
10 *607:41 *607:54 14.75 
11 *607:54 *607:60 20.5 
12 *607:60 *748:B 10 
13 *607:60 *607:69 6.35715 
14 *607:69 *756:B 10 
15 *607:69 *607:80 12.7143 
16 *607:80 *607:82 51.4643 
17 *607:82 *742:B 22.8571 
18 *607:82 *607:99 11.0357 
19 *607:99 *736:B 5 
20 *607:99 *607:112 20.9643 
21 *607:112 *607:118 16.8214 
22 *607:118 *607:120 5 
23 *607:120 *686:B 16.9286 
24 *607:120 *607:137 17.8929 
25 *607:137 *682:B 10.75 
26 *607:137 *746:B 27.6071 
27 *607:118 *607:165 9.14286 
28 *607:165 *724:B 11.25 
29 *607:165 *734:B 21.7857 
30 *607:112 *740:B 7.75 
31 *607:54 *744:B 9.75 
32 *607:35 *752:B 5 
33 *607:33 *738:B 45.25 
*END

*D_NET *608 0.000883118
*CONN
*P wr_en I
*I *650:A I *D INV_X1
*CAP
1 wr_en 0.000397771
2 *650:A 2.55834e-05
3 *608:7 0.000423354
4 *608:7 *971:CK 7.72537e-06
5 full *608:7 1.91498e-06
6 *729:B *650:A 2.67697e-05
7 *148:8 *608:7 0
*RES
1 wr_en *608:7 47.25 
2 *608:7 *650:A 13.6429 
*END

*D_NET *609 0.00117073
*CONN
*I *668:A I *D XOR2_X1
*I *678:A1 I *D NAND2_X1
*I *654:A I *D INV_X1
*I *680:A1 I *D NAND3_X1
*I *725:A1 I *D NAND3_X1
*I *972:Q O *D DFFR_X1
*CAP
1 *668:A 5.56124e-05
2 *678:A1 0
3 *654:A 2.22948e-05
4 *680:A1 5.49565e-05
5 *725:A1 0
6 *972:Q 1.47783e-05
7 *609:51 0.000150236
8 *609:16 0.000105245
9 *609:10 0.000150772
10 *609:8 0.000187591
11 *680:A1 *725:A2 9.76549e-06
12 *680:A1 *638:47 6.68461e-05
13 *609:16 *725:A2 2.75346e-06
14 *609:16 *616:20 0
15 *609:51 *667:A 0
16 *668:B *668:A 6.83605e-06
17 *678:A2 *668:A 1.21774e-06
18 *678:A2 *609:51 2.65833e-06
19 *680:A2 *680:A1 1.74934e-05
20 *711:A2 *668:A 6.38784e-06
21 *728:A2 *680:A1 6.5574e-06
22 *729:B *609:8 2.04476e-05
23 *729:B *609:10 9.19249e-05
24 *729:B *609:16 2.16578e-05
25 *956:B *609:51 0
26 *972:D *654:A 2.23871e-06
27 *972:RN *609:51 1.65264e-05
28 *973:D *609:51 0
29 *973:RN *609:8 1.25431e-05
30 *973:RN *609:10 2.08098e-06
31 *153:6 *654:A 2.39679e-06
32 *153:6 *609:16 0
33 *217:10 *609:16 2.86475e-06
34 *217:23 *680:A1 3.64233e-05
35 *220:8 *654:A 0
36 *220:8 *609:16 0
37 *221:18 *680:A1 2.31472e-05
38 *599:137 *680:A1 4.77786e-06
39 *599:137 *609:16 1.04006e-05
40 *599:139 *609:16 6.50827e-06
41 *599:159 *609:10 4.93996e-05
42 *599:159 *609:16 5.39412e-06
*RES
1 *972:Q *609:8 12.9643 
2 *609:8 *609:10 13.1429 
3 *609:10 *609:16 11.7143 
4 *609:16 *725:A1 5 
5 *609:16 *680:A1 23.6429 
6 *609:10 *654:A 12.25 
7 *609:8 *609:51 14.1786 
8 *609:51 *678:A1 5 
9 *609:51 *668:A 11.8571 
*END

*D_NET *610 0.00123974
*CONN
*I *667:A I *D XOR2_X1
*I *956:A I *D XNOR2_X1
*I *679:A2 I *D NOR2_X1
*I *730:A3 I *D NAND4_X1
*I *725:A2 I *D NAND3_X1
*I *973:Q O *D DFFR_X1
*CAP
1 *667:A 1.27922e-05
2 *956:A 2.92354e-05
3 *679:A2 1.29646e-05
4 *730:A3 5.05674e-06
5 *725:A2 4.20065e-05
6 *973:Q 7.50172e-05
7 *610:20 9.21528e-05
8 *610:16 6.65917e-05
9 *610:14 0.000109227
10 *610:12 0.000159263
11 *610:12 *968:CK 2.1307e-05
12 *667:B *610:12 1.59747e-05
13 *678:A2 *679:A2 0
14 *678:A2 *956:A 0
15 *679:A1 *610:14 1.52083e-06
16 *679:A1 *610:16 1.07633e-05
17 *679:A1 *610:20 4.43868e-06
18 *680:A1 *725:A2 9.76549e-06
19 *684:A2 *956:A 0
20 *725:A3 *725:A2 2.55122e-05
21 *730:A4 *725:A2 7.72792e-06
22 *730:A4 *730:A3 4.97191e-06
23 *733:A1 *610:20 0.000143325
24 *955:B *956:A 0
25 *956:B *956:A 2.73686e-05
26 *956:B *610:14 9.14248e-05
27 *150:8 *679:A2 2.39679e-06
28 *170:14 *667:A 0
29 *174:10 *610:12 0.000159886
30 *174:10 *610:14 2.78068e-05
31 *174:12 *610:14 2.60713e-06
32 *174:12 *610:16 9.55059e-06
33 *174:12 *610:20 2.59426e-05
34 *174:14 *610:20 4.04963e-06
35 *174:20 *610:20 2.79857e-05
36 *217:10 *725:A2 3.19164e-07
37 *599:137 *725:A2 5.50913e-06
38 *599:137 *730:A3 2.52965e-06
39 *609:16 *725:A2 2.75346e-06
40 *609:51 *667:A 0
*RES
1 *973:Q *610:12 21.3929 
2 *610:12 *610:14 9.75 
3 *610:14 *610:16 1.60714 
4 *610:16 *610:20 13.3929 
5 *610:20 *725:A2 9.92857 
6 *610:20 *730:A3 5.75 
7 *610:16 *679:A2 11.25 
8 *610:14 *956:A 13.25 
9 *610:12 *667:A 11.25 
*END

*D_NET *611 0.00250644
*CONN
*I *753:A1 I *D NOR3_X1
*I *670:A I *D XOR2_X1
*I *747:A2 I *D NOR4_X2
*I *657:A I *D INV_X1
*I *726:A1 I *D NAND2_X1
*I *743:A1 I *D NOR3_X1
*I *749:A1 I *D NOR3_X1
*I *676:A1 I *D NAND2_X1
*I *957:A I *D XNOR2_X1
*I *974:Q O *D DFFR_X1
*CAP
1 *753:A1 4.88498e-06
2 *670:A 8.51292e-05
3 *747:A2 2.15437e-05
4 *657:A 4.3338e-05
5 *726:A1 9.57555e-05
6 *743:A1 7.00564e-06
7 *749:A1 3.62646e-05
8 *676:A1 4.64444e-06
9 *957:A 7.88376e-05
10 *974:Q 7.59809e-05
11 *611:70 0.000241361
12 *611:66 0.000215427
13 *611:62 0.000187854
14 *611:51 3.2589e-05
15 *611:40 5.71952e-05
16 *611:18 0.000103188
17 *611:14 2.6162e-05
18 *611:12 8.08659e-05
19 *726:A1 *612:55 1.87369e-06
20 *726:A1 *630:16 2.40095e-05
21 *747:A2 *622:38 1.43238e-06
22 *749:A1 *749:A2 2.39679e-06
23 *749:A1 *612:10 7.86973e-06
24 *749:A1 *616:16 3.20655e-05
25 *957:A *638:36 0
26 *957:A *638:47 0
27 *611:12 *616:16 5.01679e-06
28 *611:12 *616:20 5.32982e-05
29 *611:18 *753:A2 1.72405e-05
30 *611:40 *753:A2 2.89018e-05
31 *611:51 *743:A2 2.51997e-05
32 *611:51 *753:A2 2.94455e-05
33 *611:66 *622:38 5.42723e-06
34 *611:70 *612:80 4.16195e-06
35 *611:70 *630:16 4.55261e-06
36 *671:A3 *670:A 4.37715e-05
37 *676:A2 *676:A1 1.21774e-06
38 *679:A1 *670:A 0
39 *681:A2 *657:A 2.16072e-07
40 *745:A1 *611:70 1.06702e-05
41 *747:A1 *747:A2 1.21774e-06
42 *747:A4 *611:70 2.00057e-05
43 *755:A1 *747:A2 1.18589e-06
44 *755:A1 *611:66 1.50994e-05
45 *974:D *611:12 0
46 *975:D *657:A 7.19036e-06
47 *975:D *726:A1 5.54348e-05
48 *975:RN *611:70 1.45321e-05
49 *1166:A *611:18 9.561e-06
50 *1168:A *611:66 1.70635e-05
51 *1171:A *670:A 1.2453e-05
52 *1171:A *611:62 3.07768e-05
53 *1171:A *611:66 7.72792e-06
54 *150:41 *611:70 1.61249e-06
55 *156:10 *657:A 3.69565e-05
56 *158:14 *657:A 5.17368e-06
57 *173:8 *657:A 6.74466e-06
58 *176:8 *670:A 0
59 *177:18 *749:A1 4.63892e-05
60 *177:18 *753:A1 7.19036e-06
61 *177:18 *611:12 1.80259e-05
62 *179:10 *726:A1 8.43429e-06
63 *179:18 *726:A1 1.80826e-05
64 *180:12 *670:A 0
65 *180:12 *743:A1 2.52965e-06
66 *180:23 *743:A1 8.43215e-07
67 *180:23 *611:66 0
68 *184:10 *670:A 3.3844e-05
69 *184:10 *611:51 2.3767e-06
70 *184:10 *611:62 8.88497e-06
71 *205:16 *726:A1 9.57492e-07
72 *205:16 *611:70 8.02584e-06
73 *216:24 *726:A1 1.97627e-05
74 *216:24 *611:70 1.06702e-05
75 *217:29 *957:A 6.92191e-05
76 *217:35 *676:A1 0
77 *217:35 *957:A 0
78 *218:8 *726:A1 3.3408e-05
79 *218:60 *676:A1 3.09411e-06
80 *218:60 *957:A 1.61774e-05
81 *221:18 *753:A1 2.25089e-06
82 *221:18 *611:12 5.20275e-05
83 *221:27 *753:A1 1.21774e-06
84 *223:14 *957:A 2.05108e-05
85 *228:10 *611:18 6.70982e-05
86 *228:10 *611:40 2.49497e-05
87 *228:10 *611:51 6.33941e-05
88 *228:10 *611:62 1.29947e-05
89 *230:8 *611:70 3.48838e-06
90 *231:14 *657:A 0
91 *234:14 *611:66 7.72537e-06
92 *265:8 *726:A1 1.90208e-06
93 *599:131 *611:66 1.43238e-06
*RES
1 *974:Q *611:12 15.8571 
2 *611:12 *611:14 5 
3 *611:14 *611:18 8.64286 
4 *611:18 *957:A 25.0714 
5 *611:18 *676:A1 5.75 
6 *611:14 *611:40 1.60714 
7 *611:40 *749:A1 15.25 
8 *611:40 *611:51 3.64286 
9 *611:51 *743:A1 10.75 
10 *611:51 *611:62 2.28572 
11 *611:62 *611:66 15.25 
12 *611:66 *611:70 16.7857 
13 *611:70 *726:A1 23.6429 
14 *611:70 *657:A 15.25 
15 *611:66 *747:A2 7.60714 
16 *611:62 *670:A 21.1071 
17 *611:12 *753:A1 5.75 
*END

*D_NET *612 0.00257989
*CONN
*I *669:A I *D XOR2_X1
*I *747:A3 I *D NOR4_X2
*I *749:A2 I *D NOR3_X1
*I *726:A2 I *D NAND2_X1
*I *683:A2 I *D NAND2_X1
*I *659:A I *D INV_X1
*I *743:A2 I *D NOR3_X1
*I *753:A2 I *D NOR3_X1
*I *975:Q O *D DFFR_X1
*CAP
1 *669:A 5.24767e-05
2 *747:A3 1.3229e-05
3 *749:A2 9.34691e-06
4 *726:A2 0
5 *683:A2 3.56511e-05
6 *659:A 0.000165701
7 *743:A2 7.74522e-06
8 *753:A2 2.18702e-05
9 *975:Q 0
10 *612:80 0.000102483
11 *612:55 4.17553e-05
12 *612:34 0.000257849
13 *612:32 0.000103502
14 *612:10 6.73133e-05
15 *612:6 6.52235e-05
16 *612:4 5.6192e-05
17 *659:A *903:C1 6.80758e-06
18 *659:A *979:CK 1.80826e-05
19 *659:A *630:16 1.48033e-05
20 *659:A *630:35 0.000111457
21 *669:A *630:16 8.56664e-06
22 *747:A3 *622:38 4.77114e-06
23 *612:10 *616:16 2.7272e-05
24 *612:34 *630:16 3.4585e-05
25 *669:B *669:A 8.90245e-06
26 *683:A1 *683:A2 1.43238e-06
27 *726:A1 *612:55 1.87369e-06
28 *747:A4 *669:A 1.60071e-05
29 *747:A4 *747:A3 7.72792e-06
30 *747:A4 *612:80 0.000130284
31 *749:A1 *749:A2 2.39679e-06
32 *749:A1 *612:10 7.86973e-06
33 *755:A2 *612:32 3.81944e-05
34 *755:A2 *612:34 0.000229822
35 *903:B1 *659:A 1.7524e-06
36 *903:B1 *612:34 1.3143e-06
37 *905:A2 *659:A 1.28122e-06
38 *905:A3 *659:A 0
39 *941:A1 *659:A 6.58486e-05
40 *941:A1 *683:A2 5.24321e-06
41 *942:B1 *683:A2 7.40328e-06
42 *958:B *612:34 6.76378e-05
43 *975:RN *612:80 0.000141904
44 *1166:A *753:A2 8.07144e-07
45 *150:8 *669:A 3.21622e-05
46 *150:39 *669:A 0
47 *158:14 *659:A 1.21774e-05
48 *177:18 *749:A2 2.39679e-06
49 *177:27 *749:A2 1.19839e-05
50 *179:10 *683:A2 4.48778e-05
51 *179:10 *612:34 4.11157e-05
52 *179:10 *612:55 9.68501e-06
53 *180:12 *612:10 2.39679e-06
54 *180:23 *612:6 2.53855e-05
55 *180:23 *612:10 5.74747e-05
56 *184:10 *743:A2 1.04526e-05
57 *184:10 *753:A2 1.80327e-05
58 *184:16 *753:A2 1.61002e-06
59 *193:73 *659:A 4.15904e-06
60 *206:40 *747:A3 4.12191e-06
61 *231:14 *749:A2 8.43215e-07
62 *231:14 *612:6 2.35434e-05
63 *231:14 *612:10 2.39679e-06
64 *233:8 *753:A2 1.07619e-06
65 *234:14 *612:32 4.18985e-05
66 *234:14 *612:34 1.34875e-05
67 *265:8 *683:A2 1.19839e-05
68 *265:8 *612:55 1.12494e-05
69 *555:10 *659:A 3.07159e-05
70 *594:79 *669:A 0
71 *599:104 *669:A 2.89018e-05
72 *599:110 *669:A 4.93928e-05
73 *599:110 *612:80 1.7033e-05
74 *611:18 *753:A2 1.72405e-05
75 *611:40 *753:A2 2.89018e-05
76 *611:51 *743:A2 2.51997e-05
77 *611:51 *753:A2 2.94455e-05
78 *611:70 *612:80 4.16195e-06
*RES
1 *975:Q *612:4 5 
2 *612:4 *612:6 2.75 
3 *612:6 *612:10 10.75 
4 *612:10 *753:A2 13.6429 
5 *612:10 *743:A2 11.6071 
6 *612:6 *612:32 7.28572 
7 *612:32 *612:34 15.1786 
8 *612:34 *659:A 31.8572 
9 *612:34 *612:55 6.25 
10 *612:55 *683:A2 9.75 
11 *612:55 *726:A2 5 
12 *612:32 *749:A2 11.25 
13 *612:4 *612:80 13.3929 
14 *612:80 *747:A3 11.75 
15 *612:80 *669:A 17.5714 
*END

*D_NET *613 0.000780237
*CONN
*I *672:A I *D XNOR2_X1
*I *673:A I *D XOR2_X1
*I *729:A I *D XOR2_X1
*I *976:Q O *D DFFR_X1
*CAP
1 *672:A 2.03057e-05
2 *673:A 6.98617e-05
3 *729:A 0.000102111
4 *976:Q 0
5 *613:25 0.000113766
6 *613:4 0.000125709
7 *729:A *971:CK 9.3437e-05
8 *673:B *672:A 6.50827e-06
9 *673:B *673:A 1.98471e-05
10 *675:A2 *729:A 8.22137e-05
11 *675:A2 *613:25 0
12 *677:B2 *673:A 1.72405e-05
13 *729:B *729:A 1.88334e-06
14 *968:RN *729:A 0
15 *971:D *729:A 3.23209e-05
16 *971:D *613:25 1.67818e-05
17 *170:39 *729:A 2.63307e-05
18 *172:6 *673:A 2.80752e-05
19 *598:23 *672:A 5.10087e-06
20 *599:24 *672:A 8.12996e-06
21 *599:24 *673:A 1.06148e-05
*RES
1 *976:Q *613:4 5 
2 *613:4 *729:A 31.0357 
3 *613:4 *613:25 7.75 
4 *613:25 *673:A 19.0714 
5 *613:25 *672:A 12.9643 
*END

*D_NET *616 0.00848259
*CONN
*I *787:S I *D MUX2_X1
*I *791:S I *D MUX2_X1
*I *789:S I *D MUX2_X1
*I *756:S I *D MUX2_X1
*I *790:S I *D MUX2_X1
*I *1165:Z O *D BUF_X2
*CAP
1 *787:S 0.000164774
2 *791:S 0.000176172
3 *789:S 2.59051e-05
4 *756:S 6.87197e-06
5 *790:S 0
6 *1165:Z 0.000140353
7 *616:68 0.000361426
8 *616:66 0.00053666
9 *616:49 0.000454355
10 *616:45 0.000560622
11 *616:43 0.00050725
12 *616:37 0.000262955
13 *616:30 0.000208089
14 *616:22 0.000559332
15 *616:20 0.000551007
16 *616:16 0.000258735
17 *756:S *628:71 7.19036e-06
18 *787:S *1006:CK 1.0495e-05
19 *787:S *617:18 7.72398e-05
20 *787:S *617:24 8.15504e-05
21 *787:S *634:22 0
22 *787:S *634:54 0
23 *789:S *945:A2 2.94455e-05
24 *791:S *944:B1 1.30114e-05
25 *791:S *945:A2 1.53684e-05
26 *616:22 *964:CK 4.93905e-05
27 *616:22 *982:CK 9.5257e-06
28 *616:30 *982:CK 1.08606e-05
29 *616:30 *1070:CK 6.49901e-06
30 *616:30 *634:54 0
31 *616:30 *634:78 4.87302e-06
32 *616:37 *1070:CK 8.06009e-06
33 *616:37 *634:54 0
34 *616:43 *618:16 7.99622e-05
35 *616:45 *845:S 0
36 *616:45 *1003:CK 0.000145675
37 *616:45 *619:54 6.05628e-05
38 *616:45 *619:67 1.14251e-05
39 *616:45 *619:105 1.83411e-06
40 *616:45 *634:10 3.6954e-05
41 *616:66 *629:48 0
42 *616:66 *629:58 0.000482884
43 *616:68 *945:A2 1.2453e-05
44 *616:68 *625:43 1.22106e-05
45 *616:68 *628:88 0.000105832
46 *680:A2 *616:20 2.52965e-06
47 *680:A3 *616:20 7.72792e-06
48 *719:A2 *616:45 0
49 *719:B2 *616:49 0
50 *728:A2 *616:20 3.76691e-05
51 *749:A1 *616:16 3.20655e-05
52 *756:A *756:S 6.48216e-07
53 *784:A *791:S 0
54 *787:A *787:S 7.00661e-06
55 *789:A *789:S 8.06325e-05
56 *789:B *789:S 5.62244e-05
57 *805:A *616:68 5.76624e-05
58 *810:A *616:68 0
59 *811:S *616:45 1.91498e-06
60 *843:A *616:45 1.68643e-06
61 *843:B *616:45 1.25189e-05
62 *846:A *787:S 3.62745e-05
63 *846:A *616:45 1.60038e-06
64 *867:B *616:30 0
65 *927:A1 *791:S 7.19036e-06
66 *933:B2 *616:45 0
67 *936:B2 *616:45 4.79202e-06
68 *945:A1 *791:S 0
69 *945:B2 *791:S 0
70 *949:A1 *616:68 2.57883e-05
71 *949:A2 *616:68 8.47411e-05
72 *952:A2 *616:68 2.20018e-06
73 *974:D *616:20 0
74 *982:D *616:30 0
75 *1003:D *616:45 1.51496e-05
76 *1006:D *787:S 7.40328e-06
77 *1054:D *616:30 3.85541e-05
78 *1055:D *616:68 4.24402e-05
79 *1070:D *616:37 3.64037e-05
80 *1071:D *791:S 3.90891e-05
81 *1072:D *616:66 2.79164e-06
82 *1086:D *616:45 7.67361e-06
83 *1094:D *616:45 1.18589e-06
84 *177:18 *616:16 4.40519e-05
85 *177:27 *616:16 8.51001e-05
86 *180:12 *616:16 6.65423e-06
87 *181:54 *616:66 0.000745321
88 *190:30 *616:45 0
89 *190:40 *616:43 7.93896e-05
90 *206:18 *616:16 5.37008e-05
91 *217:10 *616:20 0
92 *220:8 *616:20 5.00979e-06
93 *221:27 *616:16 0.000109662
94 *226:16 *616:22 0.000119136
95 *226:18 *616:22 1.58416e-05
96 *265:12 *616:16 1.77592e-05
97 *477:10 *789:S 1.2203e-05
98 *477:10 *616:68 4.18985e-05
99 *515:8 *787:S 5.52692e-06
100 *519:8 *791:S 7.34989e-06
101 *523:10 *787:S 2.26103e-05
102 *524:10 *616:45 4.38869e-05
103 *532:10 *616:45 5.44193e-06
104 *590:8 *616:20 0
105 *602:47 *787:S 3.01743e-06
106 *605:21 *616:22 1.25431e-05
107 *605:53 *787:S 2.55787e-06
108 *605:53 *616:37 3.83909e-06
109 *605:53 *616:45 3.11032e-05
110 *606:36 *791:S 2.17168e-05
111 *606:48 *616:68 0
112 *606:87 *789:S 0
113 *607:60 *616:49 0.000117843
114 *607:69 *616:49 6.7642e-05
115 *607:69 *616:66 1.68236e-05
116 *609:16 *616:20 0
117 *611:12 *616:16 5.01679e-06
118 *611:12 *616:20 5.32982e-05
119 *612:10 *616:16 2.7272e-05
*RES
1 *1165:Z *616:16 36.3929 
2 *616:16 *616:20 18.75 
3 *616:20 *616:22 57.25 
4 *616:22 *616:30 18.9286 
5 *616:30 *790:S 5 
6 *616:30 *616:37 8.75 
7 *616:37 *616:43 14.3214 
8 *616:43 *616:45 57.25 
9 *616:45 *616:49 14.75 
10 *616:49 *756:S 10.75 
11 *616:49 *616:66 31.9686 
12 *616:66 *616:68 23.5714 
13 *616:68 *789:S 15.6786 
14 *616:68 *791:S 30.25 
15 *616:37 *787:S 36.2143 
*END

*D_NET *617 0.00520611
*CONN
*I *853:S I *D MUX2_X1
*I *850:S I *D MUX2_X1
*I *854:S I *D MUX2_X1
*I *754:S I *D MUX2_X1
*I *851:S I *D MUX2_X1
*I *1166:Z O *D BUF_X2
*CAP
1 *853:S 7.75857e-05
2 *850:S 5.25959e-06
3 *854:S 0.000102702
4 *754:S 0
5 *851:S 5.10912e-05
6 *1166:Z 0.00020566
7 *617:62 0.000217925
8 *617:43 0.000273994
9 *617:24 0.000714925
10 *617:18 0.00070484
11 *617:8 0.000477764
12 *851:S *626:57 1.39839e-06
13 *853:S *635:35 1.22693e-05
14 *853:S *635:39 9.25123e-06
15 *854:S *866:S 1.13395e-05
16 *854:S *619:105 0
17 *854:S *642:72 2.71958e-06
18 *617:18 *898:C2 0.000104598
19 *617:18 *936:B1 1.91556e-05
20 *617:18 *629:20 2.4071e-05
21 *617:18 *634:54 5.81102e-06
22 *617:62 *866:S 9.9131e-06
23 *617:62 *627:71 7.72537e-06
24 *713:A1 *617:62 6.56007e-06
25 *713:A2 *617:62 6.71335e-06
26 *713:B1 *617:62 3.84845e-05
27 *713:B2 *617:62 1.91571e-05
28 *716:A1 *617:62 4.78532e-06
29 *719:A1 *617:62 8.9079e-06
30 *719:B2 *617:43 5.58294e-05
31 *719:B2 *617:62 3.66473e-05
32 *720:A1 *617:62 4.11048e-05
33 *720:A2 *617:62 2.20663e-05
34 *754:B *617:62 7.19036e-06
35 *762:S *617:8 2.40658e-05
36 *787:A *617:24 2.17266e-05
37 *787:S *617:18 7.72398e-05
38 *787:S *617:24 8.15504e-05
39 *795:S *617:24 0
40 *797:A *853:S 0
41 *802:S *617:24 5.44232e-05
42 *839:B *853:S 2.88615e-06
43 *850:A *850:S 2.75346e-06
44 *850:A *617:18 2.72722e-05
45 *850:B *850:S 3.19164e-07
46 *850:B *617:18 4.77786e-06
47 *851:B *851:S 1.39839e-06
48 *853:A *853:S 7.72792e-06
49 *854:A *854:S 4.37069e-05
50 *866:B *854:S 0.000128181
51 *901:A1 *617:18 5.03044e-06
52 *901:A2 *617:18 3.69346e-06
53 *901:B2 *617:18 0
54 *902:A4 *617:18 6.32404e-05
55 *909:B1 *617:62 2.86475e-06
56 *937:B2 *617:18 6.70982e-05
57 *938:B2 *617:18 6.76378e-05
58 *940:A1 *617:8 6.46084e-05
59 *940:A1 *617:18 4.402e-06
60 *942:A *617:8 2.43205e-06
61 *981:D *854:S 0.000106864
62 *1062:D *853:S 1.4495e-06
63 *1092:D *851:S 0
64 *190:40 *617:18 1.68489e-05
65 *199:65 *617:24 1.8558e-06
66 *206:66 *617:62 0.000105043
67 *212:36 *851:S 2.87152e-06
68 *222:37 *617:24 9.75679e-05
69 *222:37 *617:43 3.28029e-05
70 *222:64 *617:43 5.45642e-05
71 *223:14 *617:8 1.69253e-05
72 *227:18 *617:18 2.08892e-06
73 *227:30 *617:18 0.000246652
74 *228:10 *617:8 8.83125e-05
75 *228:18 *617:8 5.44943e-06
76 *232:38 *617:24 0.000144265
77 *258:24 *850:S 7.72537e-06
78 *258:24 *617:18 0
79 *459:12 *617:8 3.29417e-05
80 *470:10 *617:8 1.62177e-05
81 *523:10 *617:18 4.12732e-05
82 *604:101 *854:S 3.28714e-05
83 *605:177 *853:S 6.3924e-06
84 *607:41 *617:43 5.81205e-05
85 *607:41 *617:62 4.05249e-05
*RES
1 *1166:Z *617:8 40.7857 
2 *617:8 *617:18 44.7143 
3 *617:18 *617:24 28.6814 
4 *617:24 *851:S 19.6429 
5 *617:24 *617:43 14.5143 
6 *617:43 *754:S 10 
7 *617:43 *617:62 32.75 
8 *617:62 *854:S 22.25 
9 *617:18 *850:S 10.75 
10 *617:8 *853:S 18.25 
*END

*D_NET *618 0.00621416
*CONN
*I *861:S I *D MUX2_X1
*I *859:S I *D MUX2_X1
*I *750:S I *D MUX2_X1
*I *858:S I *D MUX2_X1
*I *857:S I *D MUX2_X1
*I *1167:Z O *D BUF_X2
*CAP
1 *861:S 2.76511e-05
2 *859:S 9.02478e-05
3 *750:S 7.23099e-05
4 *858:S 2.48863e-05
5 *857:S 0
6 *1167:Z 0.000248145
7 *618:79 0.000434381
8 *618:58 0.000628717
9 *618:56 0.000350555
10 *618:37 0.000384996
11 *618:20 0.000266822
12 *618:16 0.000360933
13 *618:14 0.000343591
14 *618:12 0.000248145
15 *859:S *644:55 0
16 *618:12 *1027:CK 0
17 *618:12 *629:10 0
18 *618:12 *635:8 0
19 *618:16 *635:35 1.09771e-06
20 *618:20 *634:22 0
21 *618:37 *1091:CK 0
22 *618:37 *634:20 4.29713e-06
23 *618:56 *636:26 3.71006e-06
24 *618:58 *992:CK 1.07739e-05
25 *618:58 *1092:CK 4.99246e-05
26 *618:58 *636:26 4.79658e-06
27 *618:58 *636:33 0
28 *618:58 *636:44 1.3638e-05
29 *618:58 *642:24 3.46864e-06
30 *618:79 *642:20 2.29221e-05
31 *738:B *618:79 4.33476e-05
32 *750:A *750:S 0.000167873
33 *766:A *618:37 1.83053e-06
34 *766:S *618:37 1.32558e-05
35 *777:B *859:S 9.03567e-06
36 *777:S *861:S 1.18589e-06
37 *794:S *618:16 2.47484e-06
38 *839:S *618:16 6.57609e-06
39 *850:A *618:16 1.69426e-06
40 *857:A *618:16 0.000156922
41 *857:A *618:20 1.44777e-05
42 *858:A *858:S 9.69682e-06
43 *858:A *618:37 7.72537e-06
44 *858:A *618:56 2.51931e-06
45 *858:A *618:58 2.34421e-05
46 *858:B *618:56 6.77755e-05
47 *859:A *859:S 1.87808e-05
48 *859:A *861:S 1.68643e-06
49 *859:B *859:S 1.40279e-05
50 *859:B *861:S 1.65264e-05
51 *859:B *618:79 2.69996e-05
52 *861:B *861:S 9.62051e-07
53 *899:A1 *618:37 3.09143e-06
54 *899:B1 *858:S 0
55 *899:B1 *618:37 1.59582e-06
56 *899:B2 *618:37 8.5943e-06
57 *901:A2 *618:16 1.38525e-05
58 *901:B2 *618:16 0.000110358
59 *902:A2 *618:37 3.35822e-05
60 *936:A1 *618:16 6.46654e-06
61 *936:B2 *618:16 5.46411e-05
62 *937:A2 *618:16 1.30597e-05
63 *938:A2 *618:16 0.000296177
64 *940:A2 *618:16 7.47756e-06
65 *940:A3 *618:16 2.37916e-06
66 *941:A1 *618:12 1.27666e-06
67 *941:A3 *618:12 7.96507e-06
68 *987:D *618:37 4.6749e-05
69 *988:D *618:56 4.32759e-06
70 *989:D *859:S 1.28194e-05
71 *1027:D *618:12 2.03657e-05
72 *1067:D *618:16 7.4277e-06
73 *1083:D *618:37 3.89107e-05
74 *1084:D *618:58 5.43035e-06
75 *1088:D *618:58 3.76649e-05
76 *1091:D *618:37 0
77 *158:14 *618:12 0.000204909
78 *190:40 *618:16 0.000140375
79 *205:16 *618:12 8.56923e-06
80 *216:24 *618:12 6.22254e-05
81 *223:35 *618:12 0
82 *225:97 *618:58 5.12781e-05
83 *225:97 *618:79 1.79581e-05
84 *225:101 *618:79 1.93179e-05
85 *227:30 *618:16 0
86 *231:14 *618:12 3.02372e-05
87 *232:50 *750:S 0
88 *232:67 *861:S 8.1219e-06
89 *232:67 *618:79 0.000188367
90 *516:8 *618:58 4.2375e-05
91 *523:10 *618:16 3.79451e-06
92 *542:10 *618:16 0.000158924
93 *602:32 *618:16 3.1081e-06
94 *602:32 *618:20 5.52692e-06
95 *603:27 *618:56 1.6345e-05
96 *603:31 *618:37 0
97 *603:31 *618:56 4.81412e-05
98 *604:122 *618:79 9.35698e-05
99 *604:137 *618:79 3.66923e-05
100 *607:35 *618:79 7.19036e-06
101 *607:41 *618:58 4.33476e-05
102 *607:41 *618:79 4.79358e-06
103 *616:43 *618:16 7.99622e-05
*RES
1 *1167:Z *618:12 45.8572 
2 *618:12 *618:14 5 
3 *618:14 *618:16 53.1786 
4 *618:16 *618:20 7.25 
5 *618:20 *857:S 5 
6 *618:20 *618:37 34.4643 
7 *618:37 *858:S 12.3571 
8 *618:37 *618:56 18.1786 
9 *618:56 *618:58 32.25 
10 *618:58 *750:S 24.75 
11 *618:58 *618:79 44.6072 
12 *618:79 *859:S 24.6071 
13 *618:79 *861:S 8.25 
*END

*D_NET *619 0.00617945
*CONN
*I *847:S I *D MUX2_X1
*I *748:S I *D MUX2_X1
*I *845:S I *D MUX2_X1
*I *844:S I *D MUX2_X1
*I *843:S I *D MUX2_X1
*I *846:S I *D MUX2_X1
*I *1168:Z O *D BUF_X2
*CAP
1 *847:S 0.000190894
2 *748:S 0
3 *845:S 0.00016089
4 *844:S 1.50166e-05
5 *843:S 0
6 *846:S 0.000126009
7 *1168:Z 0.000518144
8 *619:105 0.000537558
9 *619:73 0.000199999
10 *619:67 0.000432274
11 *619:54 0.000420152
12 *619:47 0.000386419
13 *619:24 0.000296256
14 *619:18 0.000660608
15 *845:S *628:52 0.000281096
16 *845:S *630:52 6.65423e-06
17 *846:S *633:63 8.82903e-06
18 *846:S *634:10 2.82647e-05
19 *847:S *924:B1 0
20 *847:S *944:A2 4.55949e-09
21 *847:S *944:B1 0
22 *847:S *945:A2 0
23 *847:S *644:8 0
24 *847:S *644:15 5.14716e-06
25 *619:18 *622:38 1.92603e-05
26 *619:24 *633:63 5.39783e-06
27 *619:24 *633:69 1.84955e-05
28 *619:47 *634:10 1.55217e-05
29 *619:54 *1004:CK 2.61381e-05
30 *619:54 *636:100 0
31 *619:105 *866:S 0
32 *619:105 *868:S 3.89632e-05
33 *719:A1 *619:105 0
34 *719:A2 *845:S 7.40328e-06
35 *719:B2 *619:105 2.35807e-05
36 *744:B *619:105 6.99557e-06
37 *748:A *619:105 0
38 *776:A *619:54 0
39 *805:A *847:S 4.38826e-05
40 *805:S *847:S 8.03349e-06
41 *811:S *845:S 1.67968e-05
42 *811:S *619:73 0
43 *843:A *619:47 2.39679e-06
44 *843:A *619:54 7.72792e-06
45 *844:B *844:S 5.54369e-05
46 *844:B *619:54 2.39679e-06
47 *844:B *619:67 4.79358e-06
48 *846:A *846:S 2.75346e-06
49 *846:B *846:S 9.57085e-06
50 *847:A *847:S 1.80259e-05
51 *850:B *846:S 0
52 *854:A *619:105 4.79658e-06
53 *854:S *619:105 0
54 *868:A *619:105 0
55 *909:A1 *844:S 1.72405e-05
56 *909:B1 *619:67 0
57 *909:B1 *619:105 0
58 *924:A1 *619:105 0
59 *928:A1 *847:S 1.80869e-05
60 *938:B1 *846:S 2.85655e-06
61 *939:A2 *619:18 0.000680763
62 *944:A1 *847:S 6.65423e-06
63 *981:D *619:105 0
64 *995:D *846:S 2.82197e-05
65 *999:D *619:105 8.13315e-05
66 *1003:D *619:54 3.89107e-05
67 *1004:D *619:54 0
68 *1055:D *847:S 1.43979e-05
69 *1172:A *845:S 1.74934e-05
70 *181:31 *845:S 4.02525e-05
71 *184:10 *619:18 1.09429e-05
72 *205:125 *619:24 1.7586e-05
73 *206:18 *619:18 1.02762e-05
74 *260:18 *846:S 0.000156349
75 *260:18 *619:24 1.36993e-05
76 *464:10 *619:105 0
77 *524:10 *619:54 1.69553e-05
78 *532:10 *844:S 5.56527e-05
79 *599:131 *619:18 1.79993e-05
80 *602:58 *846:S 0
81 *605:68 *619:47 4.37924e-06
82 *605:68 *619:54 2.21715e-05
83 *605:79 *619:54 1.10426e-05
84 *606:48 *847:S 1.27481e-05
85 *606:58 *847:S 5.17904e-05
86 *607:60 *845:S 8.13785e-06
87 *607:60 *619:73 0.000105381
88 *607:60 *619:105 2.10581e-05
89 *607:69 *845:S 1.06623e-05
90 *616:45 *845:S 0
91 *616:45 *619:54 6.05628e-05
92 *616:45 *619:67 1.14251e-05
93 *616:45 *619:105 1.83411e-06
*RES
1 *1168:Z *619:18 49.5714 
2 *619:18 *619:24 10.8657 
3 *619:24 *846:S 26.5714 
4 *619:24 *619:47 8.92857 
5 *619:47 *843:S 5 
6 *619:47 *619:54 40.25 
7 *619:54 *844:S 18.6429 
8 *619:54 *619:67 5.25 
9 *619:67 *619:73 15.6786 
10 *619:73 *845:S 39.1072 
11 *619:73 *748:S 5 
12 *619:67 *619:105 38.4286 
13 *619:105 *847:S 28.75 
*END

*D_NET *620 0.00425818
*CONN
*I *816:S I *D MUX2_X1
*I *814:S I *D MUX2_X1
*I *746:S I *D MUX2_X1
*I *1169:Z O *D BUF_X2
*CAP
1 *816:S 6.78495e-05
2 *814:S 0.000300337
3 *746:S 3.48257e-06
4 *1169:Z 0.000310994
5 *620:18 0.000683004
6 *620:14 0.000497005
7 *620:12 0.000360966
8 *814:S *649:121 5.63653e-06
9 *620:12 *1205:A 3.4682e-06
10 *620:12 *621:25 4.50122e-06
11 *620:12 *625:14 0.00016324
12 *620:12 *633:215 4.88848e-05
13 *620:12 *633:252 4.46081e-06
14 *702:A3 *816:S 0
15 *702:A3 *620:14 0
16 *717:A2 *620:12 5.9435e-07
17 *717:A3 *620:12 4.17885e-06
18 *809:A *816:S 5.17958e-06
19 *814:A *814:S 4.7181e-06
20 *816:B *816:S 6.38328e-07
21 *823:A *620:12 1.43116e-05
22 *830:A *620:12 5.3922e-05
23 *830:A *620:14 3.54591e-05
24 *830:S *620:12 1.53761e-05
25 *835:S *620:18 0.000132272
26 *837:S *620:18 7.07895e-05
27 *875:A2 *814:S 4.76369e-06
28 *887:B1 *814:S 3.67192e-05
29 *887:B1 *620:18 0.000175674
30 *912:A2 *816:S 6.00464e-06
31 *912:A2 *620:14 2.39419e-05
32 *962:RN *816:S 0
33 *178:70 *620:12 0
34 *184:52 *816:S 9.62051e-07
35 *190:142 *620:18 1.63465e-05
36 *191:142 *814:S 5.69015e-05
37 *193:14 *620:18 9.68603e-07
38 *196:95 *814:S 8.49766e-05
39 *196:95 *620:18 3.3881e-05
40 *211:8 *620:12 0
41 *211:10 *620:12 0
42 *216:69 *620:12 3.28575e-07
43 *216:143 *620:18 0.000408504
44 *271:18 *816:S 0.000111281
45 *271:18 *620:18 0.000389011
46 *274:14 *620:12 8.8707e-05
47 *274:14 *620:14 3.88788e-06
48 *548:10 *620:14 2.40538e-05
*RES
1 *1169:Z *620:12 47.875 
2 *620:12 *620:14 6.73215 
3 *620:14 *620:18 26.84 
4 *620:18 *746:S 15.2857 
5 *620:18 *814:S 28.7743 
6 *620:14 *816:S 18.75 
*END

*D_NET *621 0.00405683
*CONN
*I *819:S I *D MUX2_X1
*I *817:S I *D MUX2_X1
*I *813:S I *D MUX2_X1
*I *1169:A I *D BUF_X2
*I *1170:Z O *D BUF_X2
*CAP
1 *819:S 0.000177463
2 *817:S 0
3 *813:S 0
4 *1169:A 0
5 *1170:Z 0.000170598
6 *621:61 0.000342311
7 *621:48 0.000365158
8 *621:42 0.00049708
9 *621:25 0.000490087
10 *621:12 0.000363915
11 *819:S *948:B1 0
12 *819:S *633:320 0
13 *621:12 *1205:A 6.38328e-07
14 *621:12 *622:38 7.85357e-06
15 *621:25 *1205:A 7.66905e-06
16 *621:25 *622:48 1.28122e-06
17 *621:25 *640:47 4.16737e-06
18 *621:42 *986:CK 5.88958e-05
19 *621:42 *1081:CK 7.72537e-06
20 *621:42 *622:48 3.34772e-05
21 *621:42 *622:61 2.39467e-05
22 *621:42 *646:12 6.20945e-05
23 *621:42 *646:54 3.40094e-05
24 *685:A1 *621:12 0
25 *731:A2 *621:12 4.32144e-07
26 *761:A *621:61 1.26173e-05
27 *761:S *621:61 1.32323e-05
28 *763:A *819:S 0
29 *803:A *621:61 7.75869e-05
30 *817:A *621:48 5.055e-05
31 *817:A *621:61 2.39679e-06
32 *819:A *819:S 0.000145358
33 *827:A *621:25 3.37286e-06
34 *849:B *621:42 1.82579e-05
35 *856:A *621:48 5.16161e-05
36 *856:B *621:42 7.19036e-06
37 *856:S *621:42 0
38 *881:A1 *621:42 3.09143e-06
39 *882:A1 *621:25 8.43215e-07
40 *882:B1 *621:25 4.56614e-05
41 *883:A3 *621:42 8.25407e-05
42 *883:A4 *621:42 0
43 *919:A1 *621:61 9.18014e-06
44 *923:A1 *621:61 2.00179e-05
45 *923:A2 *621:48 7.34533e-06
46 *923:A2 *621:61 5.11574e-06
47 *923:A3 *621:61 7.34401e-06
48 *929:A2 *819:S 1.61002e-06
49 *929:A2 *621:61 2.73238e-06
50 *948:A1 *819:S 1.43544e-05
51 *948:B2 *819:S 0.000203177
52 *949:A2 *819:S 5.46411e-05
53 *986:D *621:42 1.13292e-05
54 *994:D *621:42 4.08099e-06
55 *1017:D *621:25 3.62279e-05
56 *1033:D *621:25 0
57 *1037:D *621:48 3.97332e-05
58 *1039:D *819:S 3.01743e-06
59 *1103:D *819:S 3.4231e-06
60 *1170:A *621:12 7.9624e-06
61 *178:62 *621:25 3.19164e-07
62 *180:23 *621:12 2.78249e-05
63 *188:106 *819:S 9.15042e-05
64 *196:20 *621:25 9.5114e-05
65 *205:75 *621:48 2.66911e-05
66 *216:69 *621:12 3.1659e-05
67 *216:69 *621:25 4.27863e-05
68 *222:111 *621:48 0
69 *222:121 *621:48 0
70 *223:83 *621:61 0
71 *226:100 *819:S 1.9871e-06
72 *230:35 *621:42 7.09027e-06
73 *231:60 *621:42 0
74 *565:10 *621:48 3.99211e-05
75 *601:81 *621:48 1.2203e-05
76 *601:83 *621:48 2.46986e-05
77 *601:89 *621:48 1.62121e-05
78 *604:59 *621:61 3.99099e-05
79 *604:63 *621:61 0
80 *606:166 *819:S 0
81 *620:12 *621:25 4.50122e-06
*RES
1 *1170:Z *621:12 22.75 
2 *621:12 *1169:A 5 
3 *621:12 *621:25 24.3929 
4 *621:25 *813:S 5 
5 *621:25 *621:42 43.2857 
6 *621:42 *621:48 30.1786 
7 *621:48 *817:S 5 
8 *621:48 *621:61 25.9286 
9 *621:61 *819:S 36.7143 
*END

*D_NET *622 0.0054266
*CONN
*I *865:S I *D MUX2_X1
*I *863:S I *D MUX2_X1
*I *868:S I *D MUX2_X1
*I *744:S I *D MUX2_X1
*I *866:S I *D MUX2_X1
*I *862:S I *D MUX2_X1
*I *1171:Z O *D BUF_X2
*CAP
1 *865:S 3.72945e-05
2 *863:S 9.55738e-05
3 *868:S 0.000144056
4 *744:S 6.0171e-06
5 *866:S 5.85661e-05
6 *862:S 0
7 *1171:Z 0.000384099
8 *622:67 9.46788e-05
9 *622:63 0.000619579
10 *622:61 0.000689101
11 *622:48 0.000310918
12 *622:40 0.000200112
13 *622:38 0.000384099
14 *744:S *642:72 1.87637e-06
15 *863:S *1210:A 7.19036e-06
16 *863:S *646:10 6.84316e-05
17 *863:S *646:70 6.28503e-05
18 *866:S *984:CK 0
19 *866:S *642:72 3.18123e-05
20 *868:S *642:8 4.45934e-05
21 *622:38 *1189:A 4.17141e-07
22 *622:38 *1205:A 6.66597e-06
23 *622:38 *625:14 0
24 *622:38 *632:26 1.68643e-06
25 *622:38 *638:10 5.11528e-05
26 *622:38 *640:6 1.13365e-05
27 *622:48 *1205:A 4.0926e-06
28 *622:48 *632:26 0.000136982
29 *622:48 *640:47 7.16336e-06
30 *622:61 *977:CK 9.43175e-06
31 *622:61 *1081:CK 9.57492e-07
32 *622:61 *633:367 9.63331e-06
33 *622:61 *633:371 7.20272e-06
34 *622:61 *633:378 1.87369e-06
35 *622:61 *646:12 5.44403e-06
36 *622:63 *632:38 7.1875e-07
37 *622:63 *632:56 1.19107e-06
38 *622:63 *633:281 0
39 *622:63 *646:10 5.48953e-05
40 *687:A2 *622:38 7.72537e-06
41 *713:A2 *866:S 2.20301e-05
42 *719:A1 *868:S 1.39839e-06
43 *719:A1 *622:63 1.61315e-05
44 *719:A1 *622:67 4.4292e-05
45 *720:A1 *866:S 2.89018e-05
46 *720:A4 *622:63 2.49497e-05
47 *720:A4 *622:67 0.000116792
48 *739:A1 *622:38 3.23723e-07
49 *744:A *744:S 2.39679e-06
50 *745:A3 *622:38 0
51 *747:A1 *622:38 1.80259e-05
52 *747:A2 *622:38 1.43238e-06
53 *747:A3 *622:38 4.77114e-06
54 *748:A *622:63 1.06899e-05
55 *813:B *622:48 1.28278e-05
56 *813:B *622:61 3.09143e-06
57 *820:A *622:63 0.000114415
58 *854:S *866:S 1.13395e-05
59 *865:A *865:S 8.26038e-06
60 *866:A *866:S 2.75346e-06
61 *868:A *868:S 5.40099e-05
62 *880:A1 *622:63 5.09411e-05
63 *883:A3 *622:63 5.30804e-05
64 *946:B1 *868:S 0
65 *946:B2 *868:S 0
66 *977:D *622:61 0
67 *999:D *868:S 8.48386e-05
68 *1008:D *622:63 4.16268e-05
69 *1029:D *622:63 0.000116569
70 *1033:D *622:48 1.45851e-05
71 *1168:A *622:38 4.77698e-05
72 *1170:A *622:38 7.9624e-06
73 *1174:A *622:38 0
74 *180:23 *622:38 0
75 *205:93 *866:S 3.28631e-05
76 *206:40 *622:38 2.87703e-06
77 *206:42 *865:S 2.2172e-05
78 *206:42 *622:38 0
79 *206:42 *622:61 0
80 *206:52 *622:63 1.4293e-06
81 *206:62 *622:63 0.000126779
82 *206:66 *622:63 8.55081e-06
83 *209:21 *865:S 4.08571e-06
84 *209:31 *863:S 9.51365e-05
85 *212:22 *865:S 9.0949e-05
86 *212:22 *622:48 4.11048e-05
87 *212:65 *863:S 3.53548e-05
88 *214:12 *866:S 1.30565e-05
89 *224:44 *622:63 2.49165e-05
90 *224:57 *863:S 5.79131e-06
91 *224:57 *622:63 2.57702e-05
92 *225:20 *622:63 1.45456e-05
93 *226:61 *863:S 2.35447e-05
94 *230:31 *863:S 8.33713e-06
95 *230:31 *622:63 1.07633e-05
96 *230:35 *622:61 4.9678e-06
97 *245:12 *622:63 4.61365e-05
98 *536:8 *622:63 2.64545e-05
99 *599:131 *622:38 1.71675e-05
100 *603:85 *865:S 8.64532e-05
101 *603:85 *622:48 4.16464e-05
102 *611:66 *622:38 5.42723e-06
103 *617:62 *866:S 9.9131e-06
104 *619:18 *622:38 1.92603e-05
105 *619:105 *866:S 0
106 *619:105 *868:S 3.89632e-05
107 *621:12 *622:38 7.85357e-06
108 *621:25 *622:48 1.28122e-06
109 *621:42 *622:48 3.34772e-05
110 *621:42 *622:61 2.39467e-05
*RES
1 *1171:Z *622:38 49.5 
2 *622:38 *622:40 5 
3 *622:40 *622:48 26.4643 
4 *622:48 *862:S 5 
5 *622:48 *622:61 21.9286 
6 *622:61 *622:63 61.3215 
7 *622:63 *622:67 11.3571 
8 *622:67 *866:S 23.3929 
9 *622:67 *744:S 5.75 
10 *622:63 *868:S 29.5 
11 *622:61 *863:S 26.2857 
12 *622:40 *865:S 17.25 
*END

*D_NET *623 0.00316824
*CONN
*I *734:S I *D MUX2_X1
*I *758:S I *D MUX2_X1
*I *760:S I *D MUX2_X1
*I *1172:Z O *D BUF_X2
*CAP
1 *734:S 0
2 *758:S 0.000129047
3 *760:S 0.000150731
4 *1172:Z 6.78252e-06
5 *623:35 0.000313722
6 *623:12 0.000335406
7 *623:10 0.000721825
8 *623:8 0.000728608
9 *623:8 *630:52 7.10056e-06
10 *623:10 *881:B1 6.70546e-07
11 *623:10 *1028:CK 1.95366e-05
12 *623:10 *632:26 1.49734e-05
13 *623:10 *632:36 7.72911e-06
14 *623:10 *641:34 4.03498e-05
15 *623:10 *641:58 1.87688e-05
16 *686:A *623:10 2.42139e-06
17 *698:A1 *758:S 1.43238e-06
18 *698:A2 *758:S 2.75346e-06
19 *700:B1 *623:10 5.6231e-06
20 *721:A2 *758:S 0
21 *734:A *758:S 7.16188e-07
22 *734:B *623:35 0
23 *742:A *623:10 3.84101e-05
24 *758:A *758:S 2.75346e-06
25 *825:B *623:10 1.63545e-05
26 *881:A1 *623:10 2.72171e-06
27 *881:A2 *623:10 5.43307e-05
28 *881:B2 *623:10 9.40283e-06
29 *887:A2 *623:35 9.84059e-05
30 *916:A4 *623:10 3.08703e-06
31 *918:A *623:10 2.63964e-05
32 *932:A1 *623:10 1.36877e-05
33 *962:RN *760:S 0
34 *1040:D *758:S 4.6573e-05
35 *1048:D *623:10 1.78004e-05
36 *1100:D *760:S 0
37 *178:115 *758:S 9.78549e-05
38 *181:31 *623:10 1.89066e-06
39 *184:52 *760:S 5.11574e-06
40 *184:67 *623:10 5.94701e-05
41 *184:73 *758:S 7.98366e-06
42 *184:92 *758:S 2.61827e-06
43 *184:104 *758:S 0
44 *188:134 *760:S 3.09411e-06
45 *193:14 *760:S 1.50581e-06
46 *193:142 *760:S 1.6861e-05
47 *193:142 *623:35 2.25871e-06
48 *223:60 *623:10 1.46241e-05
49 *227:127 *623:10 3.60632e-06
50 *227:142 *623:10 2.9251e-06
51 *231:60 *623:10 3.99394e-05
52 *233:27 *623:10 0
53 *270:20 *623:10 0
54 *271:18 *623:10 3.57627e-07
55 *291:14 *623:8 0
56 *456:34 *623:10 2.38218e-06
57 *472:8 *623:10 1.53357e-05
58 *558:8 *623:10 3.58235e-05
59 *561:10 *623:10 1.53526e-05
60 *568:10 *623:35 0
61 *600:105 *623:10 1.1205e-06
62 *603:163 *760:S 0
*RES
1 *1172:Z *623:8 10.75 
2 *623:8 *623:10 81.25 
3 *623:10 *623:12 5 
4 *623:12 *760:S 23.82 
5 *623:12 *623:35 18.06 
6 *623:35 *758:S 22.5357 
7 *623:35 *734:S 5 
*END

*D_NET *624 0.00506092
*CONN
*I *944:B1 I *D AOI22_X1
*I *926:B1 I *D AOI22_X1
*I *719:B1 I *D AOI22_X1
*I *908:B1 I *D AOI22_X1
*I *901:B1 I *D AOI22_X1
*I *1173:Z O *D BUF_X1
*CAP
1 *944:B1 0.000134782
2 *926:B1 6.44154e-05
3 *719:B1 8.45019e-05
4 *908:B1 4.76951e-06
5 *901:B1 0.000382938
6 *1173:Z 5.65252e-05
7 *624:71 0.000487329
8 *624:38 0.000595964
9 *624:12 0.000425734
10 *624:10 0.000317882
11 *901:B1 *633:69 0
12 *908:B1 *626:33 1.51992e-06
13 *926:B1 *927:B1 0
14 *926:B1 *1069:CK 5.56848e-05
15 *944:B1 *927:A2 2.99872e-05
16 *944:B1 *944:A2 1.37866e-05
17 *944:B1 *945:A2 9.19429e-05
18 *624:10 *626:51 8.60151e-06
19 *624:71 *927:B1 1.25215e-05
20 *624:71 *945:A2 1.76207e-05
21 *624:71 *626:76 4.33965e-05
22 *624:71 *627:71 7.83496e-05
23 *713:A1 *719:B1 0.000132529
24 *713:B1 *624:71 2.75346e-06
25 *713:B2 *624:71 0
26 *719:A2 *719:B1 0
27 *719:B2 *719:B1 1.74934e-05
28 *720:A3 *719:B1 1.99403e-06
29 *738:B *624:71 3.85541e-05
30 *768:B *926:B1 0
31 *784:S *926:B1 5.97433e-05
32 *791:S *944:B1 1.30114e-05
33 *847:S *944:B1 0
34 *898:B1 *901:B1 0.00019645
35 *908:A1 *908:B1 1.05397e-05
36 *908:A1 *624:10 3.87405e-06
37 *909:B1 *719:B1 5.56848e-05
38 *911:A2 *624:10 7.17294e-06
39 *911:A3 *624:10 1.29525e-05
40 *927:A1 *944:B1 2.16072e-07
41 *927:A1 *624:71 2.39679e-06
42 *927:B2 *926:B1 4.24381e-05
43 *927:B2 *624:71 1.87369e-06
44 *928:A3 *926:B1 6.98208e-05
45 *928:A3 *944:B1 8.03236e-06
46 *928:A4 *624:71 7.72537e-06
47 *944:A1 *944:B1 5.34233e-06
48 *984:D *719:B1 9.44209e-05
49 *190:40 *901:B1 1.07287e-06
50 *199:63 *624:12 4.37882e-05
51 *199:63 *624:38 0.000464283
52 *199:63 *624:71 0.000107976
53 *199:65 *901:B1 0.000539882
54 *199:65 *624:12 1.67933e-05
55 *212:36 *624:10 0
56 *214:12 *624:71 2.23871e-06
57 *227:30 *901:B1 2.33625e-06
58 *270:14 *624:10 2.21042e-05
59 *464:10 *719:B1 0.000119735
60 *477:10 *944:B1 4.38801e-05
61 *606:38 *944:B1 1.27666e-06
62 *607:54 *719:B1 2.28488e-06
*RES
1 *1173:Z *624:10 21 
2 *624:10 *624:12 1.47 
3 *624:12 *901:B1 32.5814 
4 *624:12 *908:B1 15.6071 
5 *624:10 *624:38 10.92 
6 *624:38 *719:B1 30.25 
7 *624:38 *624:71 46.9086 
8 *624:71 *926:B1 21.25 
9 *624:71 *944:B1 28.3929 
*END

*D_NET *625 0.00571203
*CONN
*I *886:B1 I *D AOI22_X1
*I *922:B1 I *D AOI22_X1
*I *945:B1 I *D AOI22_X1
*I *881:B1 I *D AOI22_X1
*I *1174:Z O *D BUF_X2
*CAP
1 *886:B1 1.10567e-05
2 *922:B1 5.64477e-05
3 *945:B1 2.43179e-05
4 *881:B1 7.991e-06
5 *1174:Z 0.000272629
6 *625:43 0.000365658
7 *625:41 0.000917311
8 *625:33 0.000808915
9 *625:14 0.000558955
10 *945:B1 *945:A2 2.19374e-06
11 *625:14 *633:175 4.31664e-05
12 *625:14 *633:185 9.17459e-06
13 *625:14 *633:199 7.09074e-06
14 *625:14 *633:215 1.54636e-05
15 *625:41 *1073:CK 8.22442e-06
16 *625:41 *648:12 1.15186e-06
17 *625:41 *648:14 1.27505e-05
18 *625:43 *628:88 2.04127e-06
19 *775:S *625:43 0
20 *784:S *945:B1 0
21 *789:A *625:43 8.00263e-06
22 *847:A *625:43 0.000106491
23 *856:A *886:B1 1.53761e-05
24 *856:A *625:33 7.79777e-05
25 *883:A3 *881:B1 7.72537e-06
26 *883:A4 *881:B1 3.09411e-06
27 *886:A1 *886:B1 2.52965e-06
28 *886:B2 *886:B1 2.39679e-06
29 *922:B2 *922:B1 2.39679e-06
30 *923:A4 *922:B1 7.91338e-05
31 *929:A2 *922:B1 2.87703e-06
32 *929:A2 *625:41 7.47756e-06
33 *929:A2 *625:43 6.03486e-06
34 *944:A1 *625:43 4.21902e-05
35 *945:A1 *945:B1 4.32144e-07
36 *945:B2 *945:B1 2.39679e-06
37 *947:A2 *625:43 7.00661e-06
38 *948:B2 *625:43 3.47242e-06
39 *949:B2 *625:43 6.3642e-05
40 *952:A1 *625:43 5.35131e-05
41 *952:A2 *625:43 0.000361236
42 *952:A3 *625:43 1.87885e-05
43 *953:A1 *922:B1 1.13947e-05
44 *986:D *625:33 1.33766e-05
45 *1055:D *625:43 6.44191e-06
46 *1073:D *625:41 1.55645e-05
47 *178:70 *625:14 1.33724e-06
48 *184:146 *625:41 0.000342708
49 *184:152 *625:41 2.90589e-05
50 *184:158 *922:B1 1.40196e-06
51 *184:158 *625:41 1.46241e-05
52 *184:158 *625:43 9.52324e-06
53 *188:106 *625:41 4.20358e-05
54 *205:75 *886:B1 2.85862e-06
55 *205:75 *625:33 8.27711e-06
56 *206:42 *625:14 1.63326e-05
57 *216:69 *625:14 7.97612e-07
58 *222:109 *625:14 0.00039073
59 *222:109 *625:33 0.000525784
60 *222:109 *625:41 1.0807e-05
61 *230:31 *625:14 7.77769e-06
62 *230:31 *625:33 1.02181e-05
63 *230:35 *886:B1 1.68643e-06
64 *309:22 *625:43 1.11219e-05
65 *477:10 *625:43 7.52209e-06
66 *519:8 *945:B1 2.39679e-06
67 *600:105 *881:B1 5.89762e-06
68 *606:87 *625:43 4.75044e-05
69 *616:68 *625:43 1.22106e-05
70 *620:12 *625:14 0.00016324
71 *622:38 *625:14 0
72 *623:10 *881:B1 6.70546e-07
*RES
1 *1174:Z *625:14 35.1643 
2 *625:14 *881:B1 16.1071 
3 *625:14 *625:33 21.64 
4 *625:33 *625:41 48.93 
5 *625:41 *625:43 50.4643 
6 *625:43 *945:B1 12.25 
7 *625:41 *922:B1 17.75 
8 *625:33 *886:B1 11.6429 
*END

*D_NET *626 0.00557554
*CONN
*I *931:B1 I *D AOI22_X1
*I *910:B1 I *D AOI22_X1
*I *924:B1 I *D AOI22_X1
*I *945:A2 I *D AOI22_X1
*I *716:B1 I *D AOI22_X1
*I *904:C1 I *D AOI222_X1
*I *1175:Z O *D BUF_X2
*CAP
1 *931:B1 6.16286e-06
2 *910:B1 0
3 *924:B1 2.77917e-05
4 *945:A2 0.000208098
5 *716:B1 0
6 *904:C1 0
7 *1175:Z 0.00025313
8 *626:76 0.000458267
9 *626:57 0.00044111
10 *626:51 0.000278285
11 *626:37 7.46134e-05
12 *626:33 0.00034778
13 *626:31 0.000359068
14 *626:22 5.91805e-05
15 *626:14 0.000292124
16 *931:B1 *1043:CK 8.43215e-07
17 *626:14 *1043:CK 1.62062e-05
18 *626:14 *628:10 6.12181e-05
19 *626:14 *632:14 7.43736e-06
20 *626:14 *638:10 3.88776e-05
21 *626:14 *638:25 1.19839e-05
22 *626:33 *633:97 1.13934e-05
23 *626:33 *637:31 2.71119e-05
24 *626:33 *637:35 1.20697e-05
25 *626:76 *627:71 3.72088e-05
26 *626:76 *642:14 0
27 *687:A2 *626:14 8.86402e-05
28 *713:B1 *626:76 2.89448e-07
29 *713:B2 *626:57 3.71181e-05
30 *713:B2 *626:76 4.16634e-05
31 *715:A3 *626:14 2.39679e-06
32 *716:A1 *626:76 3.80167e-06
33 *716:B2 *626:57 7.16188e-07
34 *716:B2 *626:76 2.14856e-06
35 *719:A1 *626:76 0
36 *731:A1 *626:14 0.000110825
37 *738:B *626:76 5.85453e-05
38 *767:A *626:57 1.87637e-06
39 *767:B *626:57 1.25189e-05
40 *767:S *626:57 8.26038e-06
41 *774:A *626:57 5.08248e-05
42 *776:A *626:33 0.000181328
43 *783:A *626:33 0.00013036
44 *784:S *945:A2 0
45 *789:B *945:A2 4.21607e-06
46 *789:S *945:A2 2.94455e-05
47 *791:S *945:A2 1.53684e-05
48 *847:S *924:B1 0
49 *847:S *945:A2 0
50 *851:B *626:57 0
51 *851:S *626:57 1.39839e-06
52 *866:A *626:76 0
53 *904:B1 *626:22 2.39679e-06
54 *904:B1 *626:31 2.08307e-05
55 *904:B2 *626:22 1.68643e-06
56 *907:B2 *626:37 8.43215e-07
57 *907:B2 *626:51 5.05756e-06
58 *908:A1 *626:33 4.40256e-06
59 *908:A1 *626:51 5.67012e-05
60 *908:A2 *626:33 7.54346e-07
61 *908:B1 *626:33 1.51992e-06
62 *908:B2 *626:33 9.9358e-06
63 *908:B2 *626:51 5.22833e-05
64 *910:A1 *626:37 3.37286e-06
65 *910:B2 *626:37 2.04227e-05
66 *911:A1 *626:57 1.27666e-06
67 *911:A4 *626:57 2.20718e-05
68 *924:A1 *924:B1 3.09411e-06
69 *924:A1 *626:76 0
70 *924:B2 *924:B1 2.39679e-06
71 *924:B2 *626:76 1.70233e-05
72 *927:A1 *945:A2 4.98619e-05
73 *928:A1 *945:A2 0
74 *928:A4 *945:A2 4.04215e-06
75 *931:A1 *931:B1 8.43215e-07
76 *931:A1 *626:14 2.52965e-06
77 *931:A1 *626:22 0.000115716
78 *931:A2 *931:B1 2.16072e-07
79 *931:B2 *931:B1 2.39679e-06
80 *931:B2 *626:33 0.000186591
81 *935:A1 *626:22 0.000115174
82 *944:B1 *945:A2 9.19429e-05
83 *945:B1 *945:A2 2.19374e-06
84 *996:D *626:57 0
85 *1000:D *626:57 0
86 *1043:D *626:14 4.32144e-07
87 *1099:D *626:14 4.7556e-06
88 *182:8 *626:14 6.46733e-05
89 *206:40 *626:14 7.19036e-06
90 *214:12 *626:76 1.11786e-05
91 *218:18 *626:14 0.000116573
92 *222:64 *626:76 2.94485e-05
93 *223:43 *626:22 7.72537e-06
94 *223:43 *626:31 3.47331e-05
95 *231:27 *626:14 1.02452e-05
96 *232:8 *626:14 2.15711e-05
97 *232:50 *626:57 8.37823e-06
98 *290:12 *626:33 0.000154678
99 *494:8 *626:33 8.43155e-05
100 *496:12 *626:57 1.31083e-05
101 *500:26 *626:33 4.18891e-06
102 *500:26 *626:37 1.26998e-05
103 *500:26 *626:51 2.0357e-05
104 *500:26 *626:57 0.000121925
105 *528:12 *626:57 8.77046e-06
106 *603:21 *626:51 2.34391e-05
107 *603:83 *626:33 8.14361e-05
108 *603:85 *626:33 2.3562e-05
109 *603:183 *626:57 1.88001e-05
110 *616:68 *945:A2 1.2453e-05
111 *624:10 *626:51 8.60151e-06
112 *624:71 *945:A2 1.76207e-05
113 *624:71 *626:76 4.33965e-05
*RES
1 *1175:Z *626:14 49.8214 
2 *626:14 *626:22 17.1071 
3 *626:22 *904:C1 5 
4 *626:22 *626:31 8.75 
5 *626:31 *626:33 53.1786 
6 *626:33 *626:37 7.25 
7 *626:37 *626:51 28.1786 
8 *626:51 *626:57 29.4286 
9 *626:57 *716:B1 5 
10 *626:57 *626:76 37.6786 
11 *626:76 *945:A2 40.7857 
12 *626:76 *924:B1 8.53572 
13 *626:37 *910:B1 5 
14 *626:14 *931:B1 5.75 
*END

*D_NET *627 0.00612619
*CONN
*I *874:B1 I *D AOI22_X1
*I *951:B1 I *D AOI22_X1
*I *927:B1 I *D AOI22_X1
*I *716:A2 I *D AOI22_X1
*I *886:A2 I *D AOI22_X1
*I *1176:Z O *D BUF_X2
*CAP
1 *874:B1 0.000119939
2 *951:B1 3.34159e-05
3 *927:B1 8.4909e-06
4 *716:A2 0
5 *886:A2 0
6 *1176:Z 0.000279152
7 *627:71 0.000279012
8 *627:55 0.000550563
9 *627:47 0.000358678
10 *627:43 0.00031897
11 *627:35 0.000478762
12 *627:26 0.000295906
13 *627:16 0.000473004
14 *874:B1 *1057:CK 0
15 *874:B1 *648:48 0
16 *627:16 *1028:CK 1.20429e-05
17 *627:16 *1064:CK 6.11142e-05
18 *627:16 *1206:A 0
19 *627:16 *631:55 1.51547e-06
20 *627:16 *631:66 0
21 *627:26 *1026:CK 9.60282e-05
22 *627:43 *633:341 3.82563e-06
23 *627:43 *648:48 0
24 *627:55 *629:58 0.0001401
25 *627:71 *1077:CK 0
26 *706:B1 *627:16 2.61827e-06
27 *706:B2 *627:16 4.9309e-05
28 *713:B2 *627:71 3.19164e-07
29 *716:A1 *627:71 7.72537e-06
30 *716:B2 *627:71 6.99422e-05
31 *719:A1 *627:71 6.48413e-05
32 *720:A3 *627:71 3.85496e-06
33 *738:A *627:71 2.7241e-05
34 *738:B *627:71 1.45917e-05
35 *742:B *627:16 0
36 *763:S *951:B1 0
37 *763:S *627:47 0
38 *764:S *627:35 1.88001e-05
39 *770:B *951:B1 7.19036e-06
40 *770:B *627:55 1.74934e-05
41 *782:A *627:71 0
42 *784:S *627:71 0
43 *821:S *627:16 0
44 *821:S *627:26 0
45 *823:S *627:16 0
46 *874:A1 *874:B1 4.14698e-05
47 *874:B2 *874:B1 4.30918e-06
48 *884:A3 *874:B1 0
49 *886:A1 *627:26 2.75346e-06
50 *886:A1 *627:35 6.24461e-05
51 *894:B1 *627:26 4.62804e-05
52 *894:B2 *627:26 2.30024e-06
53 *919:A1 *627:43 0.000115011
54 *919:B1 *627:47 0.000296772
55 *919:B1 *627:55 5.64879e-06
56 *926:A2 *627:71 3.09411e-06
57 *926:B1 *927:B1 0
58 *927:B2 *927:B1 2.75346e-06
59 *928:A2 *627:55 2.45626e-06
60 *928:A3 *927:B1 0
61 *928:A3 *627:55 0.000105043
62 *928:A3 *627:71 9.57948e-06
63 *928:A4 *627:55 6.78899e-05
64 *949:A2 *951:B1 1.21774e-06
65 *949:A2 *627:55 2.43548e-06
66 *951:A1 *951:B1 8.35472e-06
67 *951:B2 *951:B1 3.62235e-05
68 *951:B2 *627:47 1.66988e-05
69 *1026:D *627:26 6.65423e-06
70 *1032:D *627:16 1.28019e-05
71 *1045:D *627:55 0
72 *1064:D *627:16 3.52448e-06
73 *1077:D *627:71 3.83783e-05
74 *1082:D *627:43 2.16603e-05
75 *1089:D *627:35 3.45089e-05
76 *1101:D *627:43 2.0659e-05
77 *188:126 *627:16 5.40779e-05
78 *190:101 *627:55 1.26998e-05
79 *193:111 *627:43 0.000115595
80 *193:111 *627:47 8.47699e-06
81 *193:113 *627:47 1.61002e-06
82 *205:73 *627:26 0.000190323
83 *205:75 *627:26 1.36837e-05
84 *209:31 *627:35 0
85 *214:14 *627:26 0.000274798
86 *216:126 *627:16 5.35383e-05
87 *224:63 *627:16 0
88 *226:82 *627:16 9.62051e-07
89 *226:82 *627:26 0
90 *230:35 *627:26 0
91 *286:8 *627:47 2.45782e-05
92 *286:8 *627:55 9.55926e-06
93 *465:12 *874:B1 2.35379e-05
94 *497:14 *874:B1 7.09755e-06
95 *498:6 *627:35 3.83757e-05
96 *503:8 *627:47 0.000191479
97 *509:10 *627:43 1.12514e-05
98 *514:8 *627:26 8.89643e-06
99 *514:8 *627:35 3.09143e-06
100 *581:10 *627:43 4.34409e-05
101 *600:29 *627:43 2.92403e-05
102 *600:145 *627:43 2.92403e-05
103 *600:155 *874:B1 6.19403e-05
104 *600:155 *627:43 1.52083e-06
105 *600:170 *874:B1 6.02282e-06
106 *607:99 *627:16 3.54695e-06
107 *607:112 *627:16 6.4324e-06
108 *617:62 *627:71 7.72537e-06
109 *624:71 *927:B1 1.25215e-05
110 *624:71 *627:71 7.83496e-05
111 *626:76 *627:71 3.72088e-05
*RES
1 *1176:Z *627:16 47.8929 
2 *627:16 *627:26 39.6786 
3 *627:26 *886:A2 5 
4 *627:26 *627:35 19.25 
5 *627:35 *627:43 35.1786 
6 *627:43 *627:47 21.3929 
7 *627:47 *627:55 43.2143 
8 *627:55 *627:71 46.1072 
9 *627:71 *716:A2 5 
10 *627:55 *927:B1 6.25 
11 *627:47 *951:B1 9.25 
12 *627:35 *874:B1 25.1429 
*END

*D_NET *628 0.00753763
*CONN
*I *920:B1 I *D AOI22_X1
*I *949:B1 I *D AOI22_X1
*I *710:B1 I *D AOI22_X1
*I *909:A2 I *D AOI22_X1
*I *900:C1 I *D AOI222_X1
*I *936:B1 I *D AOI22_X1
*I *1177:Z O *D BUF_X2
*CAP
1 *920:B1 1.2341e-05
2 *949:B1 0
3 *710:B1 6.36326e-06
4 *909:A2 0.000159027
5 *900:C1 0
6 *936:B1 0.000164766
7 *1177:Z 1.35061e-05
8 *628:88 0.000340505
9 *628:71 0.000499797
10 *628:52 0.000446632
11 *628:46 0.000640497
12 *628:16 0.000308207
13 *628:10 0.000887977
14 *628:8 0.000264563
15 *909:A2 *632:70 0
16 *920:B1 *920:A2 3.10551e-06
17 *936:B1 *936:A2 1.08036e-06
18 *936:B1 *1035:CK 0
19 *936:B1 *635:35 5.78004e-05
20 *628:10 *632:14 0.00027253
21 *628:52 *632:64 7.98429e-05
22 *628:71 *632:70 0
23 *687:A1 *628:10 0.00016333
24 *710:A1 *628:71 7.98366e-06
25 *710:B2 *710:B1 2.75346e-06
26 *710:B2 *628:71 4.58915e-05
27 *717:A1 *628:8 1.10536e-05
28 *719:A1 *628:71 0
29 *719:A2 *909:A2 0
30 *719:A2 *628:71 0
31 *739:A2 *628:10 1.0629e-05
32 *756:A *628:71 1.60038e-06
33 *756:S *628:71 7.19036e-06
34 *810:B *628:88 9.68181e-06
35 *811:A *909:A2 3.81836e-05
36 *811:S *909:A2 3.01743e-06
37 *815:A *936:B1 2.70364e-05
38 *815:B *936:B1 5.52692e-06
39 *815:S *936:B1 1.84817e-05
40 *818:B *909:A2 1.74934e-05
41 *838:A *628:88 2.46138e-05
42 *838:B *628:88 7.19036e-06
43 *845:A *920:B1 6.31548e-07
44 *845:A *628:52 1.61249e-06
45 *845:S *628:52 0.000281096
46 *900:A1 *936:B1 3.19164e-07
47 *900:B2 *936:B1 1.21774e-06
48 *900:B2 *628:16 4.6837e-06
49 *900:C2 *628:16 1.68643e-06
50 *901:A2 *936:B1 8.56923e-06
51 *909:A1 *909:A2 5.62265e-05
52 *909:B2 *909:A2 1.91498e-06
53 *936:B2 *936:B1 2.39679e-06
54 *937:A1 *936:B1 1.26998e-05
55 *937:B2 *936:B1 4.6837e-06
56 *938:A1 *936:B1 1.00571e-05
57 *938:A2 *936:B1 3.104e-05
58 *938:B2 *936:B1 2.94435e-05
59 *940:A1 *936:B1 5.54348e-05
60 *940:A3 *936:B1 7.95758e-07
61 *943:A2 *628:88 0
62 *946:A1 *628:71 0
63 *946:B1 *628:71 0
64 *952:A2 *628:88 1.90842e-05
65 *1004:D *909:A2 9.43888e-05
66 *1008:D *628:71 3.76907e-05
67 *1038:D *909:A2 8.04708e-06
68 *1045:D *628:88 8.82097e-05
69 *1046:D *909:A2 4.29819e-05
70 *1072:D *628:71 1.40196e-05
71 *1099:D *628:10 3.34529e-07
72 *1170:A *628:10 7.85709e-05
73 *181:31 *628:52 7.5529e-06
74 *181:73 *628:88 2.55787e-06
75 *188:83 *628:46 1.60257e-05
76 *190:30 *628:16 4.12796e-06
77 *191:62 *920:B1 2.0055e-06
78 *191:62 *628:52 7.63742e-06
79 *191:64 *628:52 6.73306e-05
80 *191:80 *710:B1 0
81 *191:80 *628:52 8.34049e-06
82 *191:80 *628:88 0
83 *191:82 *628:88 0
84 *193:73 *628:46 0
85 *205:81 *628:71 3.58094e-06
86 *205:81 *628:88 0
87 *208:16 *628:8 1.0794e-06
88 *218:18 *628:10 9.561e-06
89 *223:60 *920:B1 7.72792e-06
90 *227:79 *628:71 0
91 *227:91 *628:88 6.06867e-06
92 *227:100 *628:88 3.84365e-06
93 *229:10 *628:10 0.000418598
94 *229:10 *628:16 0.000425553
95 *260:18 *936:B1 1.36813e-05
96 *291:14 *628:52 6.69642e-05
97 *302:14 *628:88 0
98 *524:10 *909:A2 0
99 *527:10 *628:88 7.74073e-06
100 *531:8 *628:16 1.44005e-05
101 *532:10 *909:A2 0.000126299
102 *533:8 *920:B1 2.39679e-06
103 *573:8 *628:88 8.82071e-05
104 *596:71 *628:10 7.69269e-05
105 *602:110 *628:16 6.9524e-05
106 *602:114 *628:16 0.000154226
107 *602:142 *628:16 0.000204871
108 *602:153 *628:10 3.6182e-06
109 *602:153 *628:16 1.88758e-05
110 *602:166 *628:10 4.49792e-05
111 *604:88 *628:88 4.91498e-06
112 *607:69 *628:52 1.2133e-05
113 *616:68 *628:88 0.000105832
114 *617:18 *936:B1 1.91556e-05
115 *625:43 *628:88 2.04127e-06
116 *626:14 *628:10 6.12181e-05
*RES
1 *1177:Z *628:8 11.25 
2 *628:8 *628:10 44.1429 
3 *628:10 *628:16 35.6072 
4 *628:16 *936:B1 38.1786 
5 *628:16 *900:C1 5 
6 *628:10 *628:46 25.96 
7 *628:46 *628:52 29.1072 
8 *628:52 *909:A2 37.5357 
9 *628:52 *628:71 18.8572 
10 *628:71 *710:B1 6.25 
11 *628:71 *628:88 46.6072 
12 *628:88 *949:B1 10 
13 *628:46 *920:B1 11.4643 
*END

*D_NET *629 0.00793081
*CONN
*I *710:A2 I *D AOI22_X1
*I *944:A2 I *D AOI22_X1
*I *927:A2 I *D AOI22_X1
*I *936:A2 I *D AOI22_X1
*I *898:C2 I *D AOI222_X1
*I *1178:Z O *D BUF_X2
*CAP
1 *710:A2 0
2 *944:A2 0.000117247
3 *927:A2 2.01707e-05
4 *936:A2 3.16598e-05
5 *898:C2 0.000185845
6 *1178:Z 1.54553e-05
7 *629:58 0.000476528
8 *629:48 0.00116614
9 *629:20 0.000500589
10 *629:10 0.00170499
11 *629:8 0.000610333
12 *898:C2 *1067:CK 1.28122e-06
13 *898:C2 *634:50 0
14 *936:A2 *635:35 1.29033e-06
15 *629:10 *631:40 1.04012e-05
16 *629:20 *633:63 1.34851e-06
17 *629:48 *1208:A 1.79295e-05
18 *690:A1 *629:10 1.71476e-05
19 *715:A1 *629:10 6.19036e-05
20 *739:A1 *629:10 4.99366e-05
21 *745:A3 *629:10 5.41015e-05
22 *751:A1 *629:10 1.57686e-05
23 *805:A *944:A2 2.14856e-06
24 *805:S *944:A2 1.02826e-05
25 *815:S *629:20 1.47838e-06
26 *826:A *629:48 0
27 *826:S *629:48 2.45782e-05
28 *847:S *944:A2 4.55949e-09
29 *898:B1 *898:C2 7.42935e-06
30 *898:B2 *898:C2 8.9029e-06
31 *898:C1 *898:C2 1.11194e-05
32 *900:B1 *629:20 9.15658e-06
33 *928:A2 *944:A2 1.88334e-06
34 *928:A2 *629:58 0.000378769
35 *928:A3 *927:A2 6.76378e-05
36 *936:B1 *936:A2 1.08036e-06
37 *937:A1 *936:A2 5.81102e-06
38 *937:B2 *898:C2 6.76399e-05
39 *938:B2 *936:A2 1.60274e-05
40 *944:A1 *944:A2 1.19839e-05
41 *944:B1 *927:A2 2.99872e-05
42 *944:B1 *944:A2 1.37866e-05
43 *969:D *629:10 5.73957e-06
44 *1027:D *629:10 1.97225e-05
45 *1070:D *898:C2 9.28375e-05
46 *1165:A *629:10 4.28883e-05
47 *154:14 *629:10 0.00010583
48 *154:27 *629:10 0
49 *158:14 *629:10 6.21536e-06
50 *159:40 *629:10 4.04742e-06
51 *177:29 *629:10 1.832e-05
52 *190:14 *629:10 0.000154124
53 *202:12 *629:10 2.19794e-06
54 *205:16 *629:10 0
55 *205:125 *629:20 0
56 *206:62 *629:48 1.4186e-05
57 *206:62 *629:58 3.81942e-06
58 *226:10 *629:10 1.16229e-06
59 *227:12 *629:10 0.000155941
60 *227:12 *629:20 5.38179e-05
61 *227:18 *898:C2 4.16485e-05
62 *227:18 *629:20 0.000420433
63 *227:18 *629:48 0
64 *227:30 *898:C2 9.63733e-05
65 *227:73 *629:48 0
66 *227:91 *629:48 0
67 *228:18 *898:C2 3.32295e-05
68 *262:10 *629:20 2.50339e-06
69 *477:10 *944:A2 8.30669e-06
70 *563:12 *629:20 0
71 *594:14 *629:8 4.77184e-06
72 *595:51 *629:10 5.94167e-07
73 *596:22 *629:10 1.09659e-05
74 *596:24 *629:10 2.53272e-05
75 *596:28 *629:10 1.84403e-05
76 *597:10 *629:8 1.63351e-05
77 *606:38 *944:A2 4.79358e-06
78 *606:48 *944:A2 8.4818e-05
79 *616:66 *629:48 0
80 *616:66 *629:58 0.000482884
81 *617:18 *898:C2 0.000104598
82 *617:18 *629:20 2.4071e-05
83 *618:12 *629:10 0
84 *627:55 *629:58 0.0001401
*RES
1 *1178:Z *629:8 11.75 
2 *629:8 *629:10 78.2143 
3 *629:10 *629:20 31.1857 
4 *629:20 *898:C2 39.4643 
5 *629:20 *936:A2 13.25 
6 *629:10 *629:48 42.8243 
7 *629:48 *629:58 43.3443 
8 *629:58 *927:A2 13.6429 
9 *629:58 *944:A2 25.4286 
10 *629:48 *710:A2 10 
*END

*D_NET *630 0.00433279
*CONN
*I *920:A2 I *D AOI22_X1
*I *950:A2 I *D AOI22_X1
*I *932:A2 I *D AOI22_X1
*I *903:C1 I *D AOI222_X1
*I *1179:Z O *D BUF_X2
*CAP
1 *920:A2 2.03471e-05
2 *950:A2 0.000246683
3 *932:A2 8.71307e-06
4 *903:C1 2.18335e-05
5 *1179:Z 8.70837e-05
6 *630:52 0.000383453
7 *630:39 0.000163299
8 *630:35 0.000372501
9 *630:16 0.000630939
10 *630:12 0.000361851
11 *903:C1 *979:CK 5.51046e-07
12 *950:A2 *1031:CK 0
13 *950:A2 *643:35 3.71341e-05
14 *950:A2 *643:39 5.91602e-05
15 *630:35 *1030:CK 5.82752e-05
16 *630:35 *1075:CK 0
17 *659:A *903:C1 6.80758e-06
18 *659:A *630:16 1.48033e-05
19 *659:A *630:35 0.000111457
20 *669:A *630:16 8.56664e-06
21 *714:A2 *630:12 2.14856e-06
22 *726:A1 *630:16 2.40095e-05
23 *780:B *630:35 1.87418e-05
24 *808:S *630:35 2.7629e-05
25 *824:S *950:A2 3.93732e-06
26 *836:A *630:16 9.78704e-06
27 *845:A *920:A2 1.20876e-05
28 *845:A *630:52 0.000106624
29 *845:B *950:A2 2.52965e-06
30 *845:S *630:52 6.65423e-06
31 *852:A *950:A2 2.1051e-05
32 *852:S *950:A2 2.81115e-05
33 *903:B1 *903:C1 2.46834e-06
34 *920:A1 *950:A2 2.55787e-06
35 *920:B1 *920:A2 3.10551e-06
36 *932:A1 *630:39 5.54369e-05
37 *932:A1 *630:52 3.09143e-06
38 *935:A2 *630:35 1.81777e-05
39 *941:A1 *630:16 5.39659e-06
40 *950:A1 *950:A2 0.00012214
41 *958:B *630:16 2.48043e-05
42 *975:RN *630:16 0.000231598
43 *990:D *932:A2 0
44 *1029:D *950:A2 3.52448e-06
45 *1030:D *630:35 1.68643e-06
46 *1030:D *630:39 4.28644e-05
47 *1172:A *630:52 7.27961e-06
48 *181:29 *630:35 8.92083e-05
49 *191:62 *920:A2 5.98719e-06
50 *205:8 *630:12 1.42606e-05
51 *206:10 *630:12 1.01486e-05
52 *206:10 *630:16 2.76785e-05
53 *216:24 *630:16 0
54 *223:83 *950:A2 0
55 *224:29 *630:52 8.62615e-06
56 *224:40 *950:A2 1.40461e-05
57 *224:40 *630:52 7.77973e-06
58 *234:14 *630:16 3.90045e-05
59 *265:12 *630:16 0
60 *270:20 *630:39 1.95724e-05
61 *291:14 *630:52 0
62 *292:12 *903:C1 2.94837e-05
63 *292:12 *630:35 0.000175332
64 *533:8 *950:A2 3.14292e-05
65 *539:8 *630:16 5.65173e-06
66 *558:8 *630:39 8.81362e-05
67 *594:79 *630:12 8.90245e-06
68 *597:57 *630:12 8.94418e-06
69 *599:104 *630:12 7.9975e-05
70 *599:104 *630:16 3.46436e-06
71 *599:110 *630:16 6.24717e-05
72 *604:192 *950:A2 0
73 *604:196 *950:A2 2.61827e-06
74 *607:82 *920:A2 6.68482e-05
75 *607:82 *630:52 0.000106082
76 *611:70 *630:16 4.55261e-06
77 *612:34 *630:16 3.4585e-05
78 *623:8 *630:52 7.10056e-06
*RES
1 *1179:Z *630:12 20.9286 
2 *630:12 *630:16 41.7857 
3 *630:16 *903:C1 8.35714 
4 *630:16 *630:35 49.9286 
5 *630:35 *630:39 12.7143 
6 *630:39 *932:A2 5.92857 
7 *630:39 *630:52 20.9286 
8 *630:52 *950:A2 41.6072 
9 *630:52 *920:A2 13.6429 
*END

*D_NET *631 0.00332913
*CONN
*I *894:A2 I *D AOI22_X1
*I *880:A2 I *D AOI22_X1
*I *706:A2 I *D AOI22_X1
*I *915:A2 I *D AOI22_X1
*I *1179:A I *D BUF_X2
*I *1180:Z O *D BUF_X1
*CAP
1 *894:A2 9.47687e-05
2 *880:A2 0
3 *706:A2 0
4 *915:A2 0
5 *1179:A 9.1013e-05
6 *1180:Z 0.000258289
7 *631:76 0.000261491
8 *631:66 0.000442523
9 *631:55 0.000426089
10 *631:40 0.000507102
11 *894:A2 *1026:CK 0
12 *631:40 *633:240 3.84365e-06
13 *631:55 *1206:A 7.72537e-06
14 *631:55 *633:240 3.52904e-06
15 *631:66 *1026:CK 0
16 *631:76 *1026:CK 9.75599e-06
17 *631:76 *632:36 5.87152e-05
18 *631:76 *633:387 0.000138456
19 *690:A1 *631:40 2.41376e-06
20 *701:A1 *631:40 4.91156e-06
21 *706:A1 *631:55 7.72537e-06
22 *706:B1 *631:66 1.86809e-06
23 *706:B2 *631:55 1.50144e-05
24 *707:A4 *631:55 1.1025e-05
25 *708:A3 *1179:A 0.000104258
26 *714:A2 *1179:A 0
27 *717:A1 *631:40 0
28 *717:A2 *631:40 0
29 *740:B *631:66 2.66167e-05
30 *823:S *631:55 0
31 *880:A1 *631:76 1.72405e-05
32 *889:A1 *631:76 4.12796e-06
33 *894:A1 *894:A2 2.39679e-06
34 *894:B1 *894:A2 1.60629e-06
35 *894:B2 *894:A2 0
36 *915:B2 *631:40 9.57492e-07
37 *915:B2 *631:55 2.46765e-05
38 *1176:A *631:55 3.0727e-06
39 *181:80 *631:40 1.02866e-05
40 *188:126 *631:55 7.79226e-05
41 *190:14 *631:40 2.6375e-07
42 *191:29 *631:55 1.01298e-05
43 *195:16 *631:55 0
44 *199:12 *631:40 0.000188955
45 *203:25 *631:40 3.47351e-05
46 *203:29 *631:55 3.99224e-05
47 *203:29 *631:66 4.69702e-07
48 *203:35 *894:A2 1.04624e-05
49 *203:35 *631:66 5.91164e-06
50 *205:16 *1179:A 3.85021e-06
51 *205:37 *1179:A 1.17953e-05
52 *206:52 *631:76 0.000141866
53 *226:61 *631:76 0
54 *226:82 *631:66 7.12794e-06
55 *226:82 *631:76 4.26902e-05
56 *245:12 *631:76 2.7036e-05
57 *458:8 *894:A2 0
58 *460:6 *631:55 3.21555e-05
59 *554:12 *894:A2 5.89767e-05
60 *560:10 *631:55 3.90865e-05
61 *560:10 *631:66 2.39679e-06
62 *594:73 *1179:A 0
63 *597:32 *1179:A 1.52083e-06
64 *597:57 *1179:A 1.32323e-05
65 *607:118 *631:66 2.52126e-05
66 *627:16 *631:55 1.51547e-06
67 *627:16 *631:66 0
68 *629:10 *631:40 1.04012e-05
*RES
1 *1180:Z *1179:A 31 
2 *1180:Z *631:40 36.4457 
3 *631:40 *915:A2 5 
4 *631:40 *631:55 48.8214 
5 *631:55 *706:A2 5 
6 *631:55 *631:66 10.4286 
7 *631:66 *631:76 45.1786 
8 *631:76 *880:A2 5 
9 *631:66 *894:A2 15.75 
*END

*D_NET *632 0.00700262
*CONN
*I *882:A2 I *D AOI22_X1
*I *921:A2 I *D AOI22_X1
*I *948:B1 I *D AOI22_X1
*I *934:B1 I *D AOI22_X1
*I *900:A2 I *D AOI222_X1
*I *1181:Z O *D BUF_X2
*CAP
1 *882:A2 0
2 *921:A2 5.09139e-06
3 *948:B1 0.000457561
4 *934:B1 0
5 *900:A2 0
6 *1181:Z 0.000311599
7 *632:70 0.000337118
8 *632:64 0.00036812
9 *632:56 0.000378413
10 *632:38 0.000814302
11 *632:36 0.000351212
12 *632:26 0.000477561
13 *632:14 0.000452371
14 *921:A2 *997:CK 7.72792e-06
15 *948:B1 *633:320 5.61711e-05
16 *632:14 *633:175 6.5144e-06
17 *632:14 *633:185 3.96787e-05
18 *632:14 *633:240 4.5798e-06
19 *632:26 *1205:A 9.62051e-07
20 *632:26 *633:215 1.59522e-06
21 *632:26 *640:6 8.54986e-05
22 *632:56 *643:41 7.64946e-06
23 *632:56 *643:45 2.08803e-05
24 *632:56 *643:70 2.77009e-06
25 *632:70 *1019:CK 0
26 *632:70 *637:70 4.88571e-05
27 *687:A2 *632:14 1.3143e-06
28 *701:A1 *632:14 0
29 *701:A2 *632:14 2.24152e-05
30 *813:B *632:26 7.19036e-06
31 *819:S *948:B1 0
32 *820:A *632:36 1.27492e-05
33 *820:A *632:38 5.75004e-07
34 *824:A *632:56 2.27826e-05
35 *829:B *632:70 2.56243e-06
36 *845:B *632:56 1.2631e-05
37 *849:S *632:36 0.000153566
38 *852:A *632:56 0
39 *880:A1 *632:36 4.44127e-06
40 *880:B1 *632:36 3.98806e-07
41 *882:A1 *632:26 4.94283e-05
42 *882:A1 *632:36 1.58475e-05
43 *900:A1 *632:70 2.16072e-07
44 *900:B2 *632:70 9.38538e-05
45 *909:A2 *632:70 0
46 *921:A1 *921:A2 2.75346e-06
47 *929:A3 *948:B1 2.00152e-05
48 *933:A1 *632:70 0
49 *934:A1 *632:56 5.5649e-05
50 *934:A2 *632:56 2.16072e-07
51 *934:A2 *632:64 6.48216e-07
52 *934:B2 *632:64 1.19839e-05
53 *1019:D *632:70 3.83783e-05
54 *1035:D *632:70 1.22489e-05
55 *1038:D *632:70 1.16632e-05
56 *1046:D *632:70 3.35796e-05
57 *1172:A *632:56 0.000160335
58 *154:27 *632:14 2.77413e-05
59 *178:70 *632:26 4.7181e-06
60 *182:8 *632:14 7.767e-05
61 *182:21 *632:14 6.18986e-05
62 *185:12 *632:14 5.49273e-05
63 *188:83 *632:56 7.95943e-06
64 *188:94 *948:B1 9.74621e-06
65 *190:22 *632:70 2.87248e-06
66 *190:95 *632:70 1.86809e-06
67 *190:97 *632:56 4.68638e-06
68 *191:80 *632:64 4.16464e-05
69 *193:111 *948:B1 0.000166297
70 *203:25 *632:14 0
71 *206:42 *632:26 0
72 *206:52 *632:36 9.85791e-05
73 *206:56 *632:36 3.6934e-05
74 *206:56 *632:38 6.93832e-06
75 *206:56 *632:56 8.37875e-06
76 *206:62 *921:A2 6.85774e-07
77 *206:62 *632:56 2.55605e-05
78 *222:109 *632:36 6.1631e-05
79 *226:100 *948:B1 2.65922e-05
80 *227:79 *632:70 0.000355634
81 *230:31 *632:14 7.43418e-05
82 *231:60 *632:36 2.53867e-05
83 *232:132 *948:B1 1.43047e-05
84 *232:132 *632:36 5.45811e-06
85 *233:23 *632:36 0.000108877
86 *270:14 *632:70 1.49798e-05
87 *270:20 *632:36 9.47615e-06
88 *480:10 *632:56 2.38139e-06
89 *502:8 *632:70 6.44569e-06
90 *525:10 *632:56 0
91 *561:10 *632:26 2.94435e-05
92 *596:71 *632:14 2.1951e-05
93 *597:22 *632:14 7.10056e-06
94 *607:69 *632:64 1.52083e-06
95 *607:80 *632:56 2.03456e-05
96 *607:80 *632:64 1.21603e-05
97 *622:38 *632:26 1.68643e-06
98 *622:48 *632:26 0.000136982
99 *622:63 *632:38 7.1875e-07
100 *622:63 *632:56 1.19107e-06
101 *623:10 *632:26 1.49734e-05
102 *623:10 *632:36 7.72911e-06
103 *626:14 *632:14 7.43736e-06
104 *628:10 *632:14 0.00027253
105 *628:52 *632:64 7.98429e-05
106 *628:71 *632:70 0
107 *631:76 *632:36 5.87152e-05
*RES
1 *1181:Z *632:14 48.0986 
2 *632:14 *632:26 34.8572 
3 *632:26 *632:36 35.2986 
4 *632:36 *632:38 1.21429 
5 *632:38 *632:56 47.4329 
6 *632:56 *632:64 15.5714 
7 *632:64 *632:70 46.6072 
8 *632:70 *900:A2 5 
9 *632:56 *934:B1 5 
10 *632:38 *948:B1 47.1857 
11 *632:36 *921:A2 10.75 
12 *632:26 *882:A2 10 
*END

*D_NET *633 0.0107809
*CONN
*I *1196:A I *D BUF_X4
*I *1195:A I *D BUF_X4
*I *1192:A I *D BUF_X4
*I *1197:A I *D BUF_X4
*I *1198:A I *D BUF_X4
*I *1194:A I *D BUF_X4
*I *1190:A I *D BUF_X4
*I *1188:A I *D BUF_X4
*I *1189:A I *D BUF_X4
*I *1187:A I *D BUF_X4
*I *1186:A I *D BUF_X4
*I *1184:A I *D BUF_X4
*I *1193:A I *D BUF_X4
*I *1191:A I *D BUF_X4
*I *1185:A I *D BUF_X4
*I *1183:A I *D BUF_X4
*I *1182:Z O *D BUF_X4
*CAP
1 *1196:A 0
2 *1195:A 0
3 *1192:A 0
4 *1197:A 0
5 *1198:A 0
6 *1194:A 0
7 *1190:A 0
8 *1188:A 2.53739e-05
9 *1189:A 1.27665e-05
10 *1187:A 0
11 *1186:A 0
12 *1184:A 0
13 *1193:A 0
14 *1191:A 0
15 *1185:A 0
16 *1183:A 1.00231e-05
17 *1182:Z 4.79884e-05
18 *633:387 0.000248308
19 *633:378 0.000280471
20 *633:371 4.99773e-05
21 *633:367 0.000188326
22 *633:341 0.000251413
23 *633:326 0.000273114
24 *633:324 2.17005e-05
25 *633:320 0.000235687
26 *633:308 0.000519458
27 *633:287 0.000283771
28 *633:285 2.43095e-05
29 *633:281 0.000286704
30 *633:275 0.000500587
31 *633:268 9.13877e-05
32 *633:252 1.18226e-05
33 *633:240 0.000155662
34 *633:221 0.000130289
35 *633:217 1.09083e-05
36 *633:215 0.000208672
37 *633:199 0.000213931
38 *633:185 0.000262655
39 *633:175 0.000525516
40 *633:137 0.000270447
41 *633:117 4.1325e-06
42 *633:109 0.000575204
43 *633:97 6.49569e-05
44 *633:87 0.000589993
45 *633:69 7.15259e-05
46 *633:63 0.00042683
47 *633:56 0.000150763
48 *633:52 2.59862e-05
49 *633:48 7.75102e-05
50 *633:46 0.000298788
51 *633:31 0.000237418
52 *633:29 2.24136e-05
53 *633:25 0.000188044
54 *633:13 0.000469887
55 *633:6 8.09e-05
56 *1189:A *1205:A 2.43548e-06
57 *633:13 *1009:CK 1.80853e-05
58 *633:25 *1030:CK 1.88682e-05
59 *633:25 *1043:CK 1.65965e-05
60 *633:25 *637:109 4.84981e-06
61 *633:29 *637:109 1.05022e-05
62 *633:46 *637:27 3.23723e-07
63 *633:56 *1035:CK 1.86809e-06
64 *633:63 *634:10 1.19657e-05
65 *633:175 *1043:CK 5.94174e-07
66 *633:175 *640:10 4.43649e-06
67 *633:175 *640:14 7.20257e-05
68 *633:275 *993:CK 8.77996e-06
69 *633:275 *1025:CK 3.09143e-06
70 *633:275 *1037:CK 4.9678e-06
71 *633:281 *1208:A 3.51992e-06
72 *633:281 *643:41 1.06678e-05
73 *633:281 *643:45 2.12997e-05
74 *633:281 *643:70 3.50537e-05
75 *633:281 *646:25 1.07633e-05
76 *633:285 *1208:A 4.55949e-09
77 *633:308 *1208:A 1.73809e-06
78 *633:308 *645:8 2.16603e-05
79 *633:308 *645:10 9.56207e-06
80 *633:320 *1101:CK 7.83546e-06
81 *633:320 *645:8 1.43544e-05
82 *633:320 *645:116 7.91255e-05
83 *633:367 *977:CK 2.99974e-05
84 *633:367 *646:25 8.87357e-05
85 *690:A1 *1188:A 9.46648e-06
86 *690:A1 *633:240 4.30693e-06
87 *701:A1 *1188:A 6.94623e-06
88 *701:A1 *633:240 1.54553e-06
89 *701:A2 *633:240 4.17827e-06
90 *717:A2 *633:240 0
91 *739:A1 *633:185 1.24618e-05
92 *757:A *633:320 8.25513e-05
93 *757:A *633:326 1.28122e-06
94 *757:A *633:341 1.43538e-06
95 *763:A *633:308 2.97016e-05
96 *763:A *633:320 2.13496e-05
97 *764:B *633:341 3.0227e-05
98 *776:A *633:97 1.53051e-05
99 *783:A *633:46 1.25431e-05
100 *783:B *633:46 2.56243e-06
101 *805:A *633:137 0
102 *815:A *633:63 2.03604e-05
103 *815:S *633:63 2.16578e-05
104 *819:S *633:320 0
105 *824:S *633:285 0
106 *826:S *633:285 0
107 *830:A *633:240 2.60842e-06
108 *830:S *633:240 8.78657e-06
109 *843:A *633:63 2.19416e-05
110 *845:B *633:281 0
111 *845:B *633:285 0
112 *846:A *633:69 1.74693e-06
113 *846:S *633:63 8.82903e-06
114 *848:B *633:268 0
115 *860:S *633:25 6.27788e-06
116 *865:A *633:215 6.7537e-05
117 *874:A1 *633:341 9.17028e-07
118 *874:A2 *633:341 0
119 *878:A4 *633:341 0
120 *883:A1 *633:175 6.86631e-06
121 *883:A4 *633:367 4.64499e-05
122 *884:A3 *633:341 0
123 *889:A2 *633:387 0
124 *890:A3 *633:341 2.11424e-05
125 *900:B1 *633:48 2.29834e-05
126 *900:B1 *633:52 9.91109e-06
127 *900:B1 *633:56 8.43215e-07
128 *900:B1 *633:63 3.4944e-05
129 *901:B1 *633:69 0
130 *920:A1 *633:281 1.39047e-05
131 *931:B2 *633:46 9.22998e-06
132 *935:A2 *633:25 5.10087e-06
133 *948:B1 *633:320 5.61711e-05
134 *993:D *633:268 0
135 *993:D *633:275 0
136 *1022:D *633:46 0
137 *1025:D *633:281 1.60613e-05
138 *1025:D *633:367 3.49085e-06
139 *1029:D *633:281 0
140 *1031:D *633:285 7.16188e-07
141 *1075:D *633:46 6.26151e-06
142 *1078:D *633:46 2.99481e-05
143 *178:24 *633:97 5.45829e-06
144 *178:70 *633:199 5.51098e-06
145 *178:70 *633:215 2.96932e-05
146 *178:70 *633:252 5.6231e-06
147 *184:127 *633:341 0
148 *195:16 *633:240 5.1203e-06
149 *203:25 *633:240 3.76676e-06
150 *205:16 *633:185 6.1937e-06
151 *205:93 *633:117 5.58859e-06
152 *205:125 *633:69 0
153 *206:42 *633:367 0
154 *206:42 *633:371 0
155 *206:42 *633:378 0
156 *208:22 *633:25 4.43282e-05
157 *208:22 *633:46 2.00207e-05
158 *212:32 *633:25 2.43205e-06
159 *212:32 *633:175 9.05417e-06
160 *216:98 *633:367 4.17433e-06
161 *216:126 *633:175 4.25665e-05
162 *222:109 *633:185 1.59171e-05
163 *224:29 *633:25 6.04302e-06
164 *224:29 *633:29 1.05022e-05
165 *224:29 *633:46 1.21556e-05
166 *224:44 *633:281 8.97624e-06
167 *224:57 *633:367 6.02371e-06
168 *225:20 *633:6 3.96127e-06
169 *225:20 *633:13 3.05398e-06
170 *225:20 *633:268 3.58099e-06
171 *225:20 *633:275 4.48278e-06
172 *225:67 *633:46 2.26705e-05
173 *226:82 *633:387 1.59409e-05
174 *226:100 *633:320 8.24308e-05
175 *226:110 *633:137 7.62298e-06
176 *230:31 *633:175 1.84696e-05
177 *230:31 *633:185 1.3847e-05
178 *230:35 *633:326 2.72099e-06
179 *230:35 *633:341 4.58904e-06
180 *230:35 *633:378 9.11897e-09
181 *230:35 *633:387 2.24327e-06
182 *231:31 *633:13 2.23415e-06
183 *231:60 *633:13 6.40152e-06
184 *232:14 *633:46 4.04742e-06
185 *234:14 *633:185 2.87162e-06
186 *234:33 *633:185 1.66812e-05
187 *246:10 *633:341 3.39975e-05
188 *260:18 *633:63 3.68505e-05
189 *270:14 *633:97 0
190 *270:20 *633:175 0
191 *291:14 *633:46 7.37789e-06
192 *465:12 *633:341 0
193 *513:10 *633:175 1.21774e-06
194 *518:8 *633:25 7.54976e-06
195 *522:8 *633:378 7.33336e-08
196 *522:8 *633:387 3.06073e-06
197 *523:10 *1183:A 0
198 *537:10 *633:175 1.9871e-06
199 *563:12 *633:63 2.41836e-05
200 *581:10 *633:320 5.51373e-06
201 *600:29 *633:320 2.57927e-05
202 *600:37 *633:275 2.60188e-05
203 *600:77 *633:175 6.83589e-06
204 *600:145 *633:326 2.41432e-06
205 *600:145 *633:341 1.32137e-05
206 *600:155 *633:341 1.54775e-05
207 *602:110 *633:63 3.69346e-06
208 *602:114 *633:46 1.07633e-05
209 *602:118 *633:48 1.94716e-05
210 *602:118 *633:52 1.13134e-05
211 *602:118 *633:56 5.52959e-06
212 *602:142 *633:46 4.01614e-05
213 *605:53 *1183:A 5.52959e-06
214 *607:82 *633:281 0
215 *619:24 *633:63 5.39783e-06
216 *619:24 *633:69 1.84955e-05
217 *620:12 *633:215 4.88848e-05
218 *620:12 *633:252 4.46081e-06
219 *622:38 *1189:A 4.17141e-07
220 *622:61 *633:367 9.63331e-06
221 *622:61 *633:371 7.20272e-06
222 *622:61 *633:378 1.87369e-06
223 *622:63 *633:281 0
224 *625:14 *633:175 4.31664e-05
225 *625:14 *633:185 9.17459e-06
226 *625:14 *633:199 7.09074e-06
227 *625:14 *633:215 1.54636e-05
228 *626:33 *633:97 1.13934e-05
229 *627:43 *633:341 3.82563e-06
230 *629:20 *633:63 1.34851e-06
231 *631:40 *633:240 3.84365e-06
232 *631:55 *633:240 3.52904e-06
233 *631:76 *633:387 0.000138456
234 *632:14 *633:175 6.5144e-06
235 *632:14 *633:185 3.96787e-05
236 *632:14 *633:240 4.5798e-06
237 *632:26 *633:215 1.59522e-06
*RES
1 *1182:Z *633:6 7.25 
2 *633:6 *633:13 11.25 
3 *633:13 *633:25 25.5357 
4 *633:25 *633:29 2.75 
5 *633:29 *633:31 5 
6 *633:31 *633:46 43.7857 
7 *633:46 *633:48 6.96429 
8 *633:48 *633:52 2.53572 
9 *633:52 *633:56 6.25 
10 *633:56 *633:63 24.1072 
11 *633:63 *633:69 7.49286 
12 *633:69 *1183:A 11.25 
13 *633:63 *633:87 17.13 
14 *633:87 *633:97 17.2414 
15 *633:97 *1185:A 10 
16 *633:87 *633:109 14.91 
17 *633:109 *633:117 11.3929 
18 *633:117 *1191:A 10 
19 *633:109 *633:137 25.2743 
20 *633:137 *1193:A 10 
21 *633:52 *1184:A 5 
22 *633:29 *1186:A 5 
23 *633:13 *633:175 36.5614 
24 *633:175 *633:185 16.3071 
25 *633:185 *1187:A 10 
26 *633:175 *633:199 6.53572 
27 *633:199 *1189:A 11.4286 
28 *633:199 *633:215 21.9643 
29 *633:215 *633:217 1.25 
30 *633:217 *633:221 5 
31 *633:221 *633:240 23.8214 
32 *633:240 *1188:A 7.75 
33 *633:215 *633:252 1.60714 
34 *633:252 *1190:A 10 
35 *1182:Z *633:268 7.25 
36 *633:268 *633:275 13.25 
37 *633:275 *633:281 33.7143 
38 *633:281 *633:285 2.25 
39 *633:285 *633:287 5 
40 *633:287 *633:308 39.3814 
41 *633:308 *1194:A 10 
42 *633:308 *633:320 35.5357 
43 *633:320 *633:324 5 
44 *633:324 *633:326 2.25 
45 *633:326 *633:341 33.1786 
46 *633:341 *1198:A 10 
47 *633:324 *1197:A 5 
48 *633:285 *1192:A 5 
49 *633:275 *633:367 26.0357 
50 *633:367 *633:371 2.03572 
51 *633:371 *1195:A 5 
52 *633:371 *633:378 2.75 
53 *633:378 *633:387 32.6072 
54 *633:387 *1196:A 10 
*END

*D_NET *634 0.00306593
*CONN
*I *995:CK I *D DFF_X1
*I *1091:CK I *D DFF_X1
*I *1083:CK I *D DFF_X1
*I *987:CK I *D DFF_X1
*I *1067:CK I *D DFF_X1
*I *1054:CK I *D DFF_X1
*I *982:CK I *D DFF_X1
*I *1199:A I *D BUF_X4
*I *1006:CK I *D DFF_X1
*I *1051:CK I *D DFF_X1
*I *1059:CK I *D DFF_X1
*I *1183:Z O *D BUF_X4
*CAP
1 *995:CK 0
2 *1091:CK 6.03184e-05
3 *1083:CK 0
4 *987:CK 0
5 *1067:CK 3.80851e-05
6 *1054:CK 0
7 *982:CK 6.90564e-05
8 *1199:A 4.29758e-05
9 *1006:CK 2.87373e-05
10 *1051:CK 3.36079e-05
11 *1059:CK 1.91399e-05
12 *1183:Z 0.000104215
13 *634:78 0.000150248
14 *634:54 0.000180811
15 *634:50 0.000263889
16 *634:39 0.000150114
17 *634:33 0.000121541
18 *634:22 0.000220923
19 *634:20 0.00022049
20 *634:16 8.35976e-05
21 *634:12 0.000189748
22 *634:10 0.000209303
23 *634:78 *1070:CK 2.32447e-05
24 *773:A *1091:CK 0
25 *787:S *1006:CK 1.0495e-05
26 *787:S *634:22 0
27 *787:S *634:54 0
28 *794:A *634:39 5.94783e-07
29 *804:A *982:CK 0
30 *843:A *634:10 1.90956e-05
31 *846:A *1006:CK 1.43538e-06
32 *846:S *634:10 2.82647e-05
33 *857:B *634:22 7.72792e-06
34 *867:A *634:50 6.32202e-06
35 *867:A *634:54 7.72792e-06
36 *867:A *634:78 5.28399e-05
37 *867:B *634:54 7.2187e-06
38 *867:B *634:78 5.1735e-06
39 *898:A1 *1051:CK 0
40 *898:A1 *634:54 0
41 *898:B1 *634:50 7.01128e-06
42 *898:B2 *1067:CK 1.87392e-05
43 *898:B2 *634:39 1.85755e-05
44 *898:B2 *634:50 2.65798e-06
45 *898:C1 *1067:CK 0
46 *898:C2 *1067:CK 1.28122e-06
47 *898:C2 *634:50 0
48 *899:B2 *634:12 1.55606e-05
49 *899:B2 *634:16 6.9451e-06
50 *902:A4 *1199:A 5.60371e-05
51 *902:A4 *634:54 5.34749e-05
52 *987:D *634:20 1.21774e-06
53 *987:D *634:22 5.43035e-06
54 *995:D *634:10 1.23499e-05
55 *995:D *634:12 1.58699e-05
56 *1051:D *1051:CK 6.38328e-07
57 *1059:D *1059:CK 6.38328e-07
58 *1059:D *634:22 0
59 *1070:D *634:54 0
60 *1083:D *1091:CK 0
61 *1083:D *634:12 0
62 *1083:D *634:20 6.38328e-07
63 *1091:D *1091:CK 2.39679e-06
64 *190:40 *1006:CK 0.00012041
65 *226:18 *982:CK 5.54348e-05
66 *228:18 *634:50 3.01743e-06
67 *258:24 *1051:CK 2.16072e-07
68 *258:24 *1067:CK 0
69 *258:24 *634:39 0
70 *258:24 *634:54 0
71 *462:6 *982:CK 6.07323e-06
72 *515:8 *634:22 0
73 *523:10 *1006:CK 4.32319e-05
74 *523:10 *1199:A 9.81049e-06
75 *602:21 *1059:CK 0
76 *602:21 *634:22 0
77 *602:32 *634:22 0
78 *602:58 *1091:CK 0
79 *602:58 *634:12 2.78843e-05
80 *602:58 *634:22 0
81 *602:84 *634:10 5.48976e-06
82 *602:84 *634:12 1.17838e-05
83 *602:95 *634:10 6.9251e-05
84 *605:42 *982:CK 2.39679e-06
85 *605:42 *634:78 3.23209e-05
86 *605:53 *634:10 2.39679e-06
87 *605:68 *634:10 0
88 *616:22 *982:CK 9.5257e-06
89 *616:30 *982:CK 1.08606e-05
90 *616:30 *634:54 0
91 *616:30 *634:78 4.87302e-06
92 *616:37 *634:54 0
93 *616:45 *634:10 3.6954e-05
94 *617:18 *634:54 5.81102e-06
95 *618:20 *634:22 0
96 *618:37 *1091:CK 0
97 *618:37 *634:20 4.29713e-06
98 *619:47 *634:10 1.55217e-05
99 *633:63 *634:10 1.19657e-05
*RES
1 *1183:Z *634:10 25.5357 
2 *634:10 *634:12 12.4643 
3 *634:12 *634:16 7.28572 
4 *634:16 *634:20 6.35715 
5 *634:20 *634:22 17.1071 
6 *634:22 *1059:CK 7.53572 
7 *634:22 *634:33 4.32143 
8 *634:33 *634:39 10.3929 
9 *634:39 *1051:CK 13.25 
10 *634:39 *634:50 7.71429 
11 *634:50 *634:54 16.75 
12 *634:54 *1006:CK 21.3571 
13 *634:54 *1199:A 10.75 
14 *634:50 *634:78 15.9643 
15 *634:78 *982:CK 23.7143 
16 *634:78 *1054:CK 5 
17 *634:33 *1067:CK 12.1071 
18 *634:20 *987:CK 5 
19 *634:16 *1083:CK 5 
20 *634:12 *1091:CK 15.75 
21 *634:10 *995:CK 10 
*END

*D_NET *635 0.0037732
*CONN
*I *979:CK I *D DFF_X1
*I *1011:CK I *D DFF_X1
*I *1027:CK I *D DFF_X1
*I *1200:A I *D BUF_X4
*I *1014:CK I *D DFF_X1
*I *1062:CK I *D DFF_X1
*I *1102:CK I *D DFF_X1
*I *964:CK I *D DFFR_X1
*I *998:CK I *D DFF_X1
*I *1070:CK I *D DFF_X1
*I *1035:CK I *D DFF_X1
*I *1184:Z O *D BUF_X4
*CAP
1 *979:CK 0.000148595
2 *1011:CK 0
3 *1027:CK 4.67429e-05
4 *1200:A 0
5 *1014:CK 0
6 *1062:CK 0
7 *1102:CK 0
8 *964:CK 0.000114605
9 *998:CK 5.15957e-05
10 *1070:CK 0.000163786
11 *1035:CK 8.93453e-05
12 *1184:Z 3.85509e-05
13 *635:119 0.000171722
14 *635:108 9.0568e-05
15 *635:99 2.52062e-05
16 *635:69 0.000168908
17 *635:56 0.000183062
18 *635:39 0.000256508
19 *635:35 0.000147546
20 *635:27 0.000189121
21 *635:10 0.000161308
22 *635:8 5.78884e-05
23 *659:A *979:CK 1.80826e-05
24 *762:B *635:56 1.19024e-05
25 *762:B *635:69 0
26 *790:A *1070:CK 8.75903e-06
27 *797:A *635:35 0
28 *815:B *1035:CK 9.24246e-06
29 *815:B *635:8 2.16072e-07
30 *815:B *635:27 4.21607e-06
31 *815:B *635:35 0
32 *836:A *979:CK 3.76527e-05
33 *836:A *1035:CK 1.66988e-05
34 *836:A *635:10 6.39357e-05
35 *836:A *635:27 7.19036e-06
36 *836:A *635:99 2.59893e-05
37 *836:A *635:108 0.000129157
38 *836:A *635:119 8.78e-05
39 *839:B *635:35 0
40 *839:S *1035:CK 2.39679e-06
41 *839:S *635:27 2.12383e-05
42 *839:S *635:35 0.00010731
43 *853:A *635:56 2.00207e-05
44 *853:A *635:69 5.56848e-05
45 *853:S *635:35 1.22693e-05
46 *853:S *635:39 9.25123e-06
47 *867:A *1070:CK 1.01993e-05
48 *867:B *1070:CK 4.177e-06
49 *900:B1 *1035:CK 5.82556e-05
50 *903:A1 *979:CK 5.29415e-05
51 *903:B2 *979:CK 1.97015e-05
52 *903:C1 *979:CK 5.51046e-07
53 *905:A2 *979:CK 6.37013e-06
54 *936:A2 *635:35 1.29033e-06
55 *936:B1 *1035:CK 0
56 *936:B1 *635:35 5.78004e-05
57 *937:A1 *1070:CK 1.09659e-05
58 *938:A1 *1035:CK 2.16072e-07
59 *938:A1 *635:35 1.87369e-06
60 *939:B2 *635:56 2.56243e-06
61 *941:A1 *979:CK 6.52006e-07
62 *942:A *979:CK 1.23738e-05
63 *942:B1 *979:CK 9.62051e-07
64 *979:D *979:CK 3.83007e-05
65 *998:D *998:CK 5.75407e-06
66 *1011:D *635:10 1.72405e-05
67 *1011:D *635:99 3.02372e-05
68 *1011:D *635:108 0.000133403
69 *1011:D *635:119 4.18985e-05
70 *1014:D *635:27 1.18547e-06
71 *1035:D *1035:CK 4.8638e-05
72 *1062:D *635:39 1.21392e-05
73 *190:22 *1035:CK 1.87418e-05
74 *216:24 *979:CK 1.55645e-05
75 *216:24 *1035:CK 2.06148e-05
76 *216:24 *635:10 1.87956e-05
77 *216:24 *635:119 1.71877e-05
78 *223:35 *1027:CK 1.79607e-05
79 *226:16 *964:CK 8.30033e-05
80 *226:16 *635:69 0
81 *228:14 *979:CK 0
82 *228:18 *1070:CK 2.16058e-05
83 *228:18 *635:56 1.21775e-05
84 *260:18 *1035:CK 1.43238e-06
85 *459:12 *979:CK 4.8057e-06
86 *526:12 *964:CK 0
87 *526:12 *998:CK 7.34533e-06
88 *526:12 *635:69 0
89 *542:10 *635:35 5.11191e-06
90 *563:12 *1035:CK 1.56073e-06
91 *563:12 *635:8 1.26075e-05
92 *602:118 *1035:CK 0
93 *602:118 *635:8 4.00337e-06
94 *605:25 *1070:CK 2.00486e-05
95 *605:42 *1070:CK 4.9678e-06
96 *605:53 *1070:CK 5.70072e-05
97 *605:170 *1070:CK 7.14424e-06
98 *605:170 *635:56 5.0313e-06
99 *605:177 *635:56 2.56243e-06
100 *616:22 *964:CK 4.93905e-05
101 *616:30 *1070:CK 6.49901e-06
102 *616:37 *1070:CK 8.06009e-06
103 *618:12 *1027:CK 0
104 *618:12 *635:8 0
105 *618:16 *635:35 1.09771e-06
106 *633:56 *1035:CK 1.86809e-06
107 *634:78 *1070:CK 2.32447e-05
*RES
1 *1184:Z *635:8 13.75 
2 *635:8 *635:10 3.64286 
3 *635:10 *1035:CK 22.5357 
4 *635:10 *635:27 11.6786 
5 *635:27 *635:35 25.25 
6 *635:35 *635:39 7.25 
7 *635:39 *1070:CK 30.8929 
8 *635:39 *635:56 14.7857 
9 *635:56 *998:CK 10.75 
10 *635:56 *635:69 16.3571 
11 *635:69 *964:CK 32.3572 
12 *635:69 *1102:CK 5 
13 *635:35 *1062:CK 5 
14 *635:27 *1014:CK 5 
15 *635:8 *635:99 1.60714 
16 *635:99 *1200:A 10 
17 *635:99 *635:108 7.03572 
18 *635:108 *1027:CK 14.75 
19 *635:108 *635:119 5 
20 *635:119 *1011:CK 10 
21 *635:119 *979:CK 29.2143 
*END

*D_NET *636 0.00235376
*CONN
*I *996:CK I *D DFF_X1
*I *1004:CK I *D DFF_X1
*I *1003:CK I *D DFF_X1
*I *1201:A I *D BUF_X4
*I *1052:CK I *D DFF_X1
*I *1076:CK I *D DFF_X1
*I *1092:CK I *D DFF_X1
*I *1084:CK I *D DFF_X1
*I *988:CK I *D DFF_X1
*I *1060:CK I *D DFF_X1
*I *1185:Z O *D BUF_X4
*CAP
1 *996:CK 5.48592e-06
2 *1004:CK 7.28723e-05
3 *1003:CK 0.000173489
4 *1201:A 5.19576e-06
5 *1052:CK 4.54058e-05
6 *1076:CK 4.62305e-06
7 *1092:CK 4.45552e-05
8 *1084:CK 0
9 *988:CK 7.54015e-06
10 *1060:CK 0
11 *1185:Z 0
12 *636:100 0.000139437
13 *636:44 0.000103627
14 *636:33 0.000112931
15 *636:26 0.000174641
16 *636:14 0.000198074
17 *636:12 0.000132637
18 *636:10 3.93342e-05
19 *636:8 0.000221328
20 *636:4 9.68813e-05
21 *769:A *1003:CK 2.52965e-06
22 *769:S *1003:CK 1.32348e-05
23 *776:A *1052:CK 0
24 *776:A *636:8 4.86813e-05
25 *776:A *636:100 2.75346e-06
26 *781:A *636:14 1.14246e-05
27 *781:A *636:26 3.01585e-05
28 *795:A *636:26 2.88159e-06
29 *795:B *636:26 6.11214e-05
30 *802:B *1052:CK 2.39679e-06
31 *858:A *636:26 6.61717e-05
32 *907:B2 *1076:CK 7.19036e-06
33 *908:A2 *636:100 0
34 *908:B2 *636:100 0
35 *910:B2 *1076:CK 7.72792e-06
36 *911:A1 *1052:CK 0
37 *911:A1 *1201:A 0
38 *911:A3 *1004:CK 0
39 *988:D *636:26 0
40 *988:D *636:33 0
41 *1060:D *636:26 0
42 *1060:D *636:33 6.38328e-07
43 *1076:D *636:26 1.66988e-05
44 *1084:D *988:CK 0
45 *1084:D *1092:CK 9.77662e-06
46 *1084:D *636:44 2.75346e-06
47 *1086:D *1003:CK 9.57985e-06
48 *1094:D *1003:CK 1.10223e-05
49 *190:30 *1003:CK 5.74951e-06
50 *212:36 *1004:CK 0
51 *225:80 *1003:CK 6.07549e-06
52 *225:80 *636:10 1.50869e-06
53 *225:80 *636:12 2.94407e-06
54 *225:80 *636:14 2.01697e-06
55 *270:14 *1004:CK 5.62265e-05
56 *484:8 *636:14 8.84041e-05
57 *603:27 *636:26 9.26282e-06
58 *603:42 *636:26 0
59 *603:83 *1003:CK 1.85799e-05
60 *603:83 *636:10 4.40064e-06
61 *603:83 *636:12 8.92676e-06
62 *603:83 *636:14 1.47768e-05
63 *603:83 *636:26 6.20416e-06
64 *616:45 *1003:CK 0.000145675
65 *618:56 *636:26 3.71006e-06
66 *618:58 *1092:CK 4.99246e-05
67 *618:58 *636:26 4.79658e-06
68 *618:58 *636:33 0
69 *618:58 *636:44 1.3638e-05
70 *619:54 *1004:CK 2.61381e-05
71 *619:54 *636:100 0
*RES
1 *1185:Z *636:4 5 
2 *636:4 *636:8 9.75 
3 *636:8 *636:10 1.60714 
4 *636:10 *636:12 2.96429 
5 *636:12 *636:14 7.71429 
6 *636:14 *636:26 21.0714 
7 *636:26 *1060:CK 5 
8 *636:26 *636:33 4.75 
9 *636:33 *988:CK 5.92857 
10 *636:33 *636:44 7.35715 
11 *636:44 *1084:CK 5 
12 *636:44 *1092:CK 11.3571 
13 *636:14 *1076:CK 10.75 
14 *636:12 *1052:CK 14.25 
15 *636:10 *1201:A 10.75 
16 *636:8 *1003:CK 32.2143 
17 *636:4 *636:100 5.75 
18 *636:100 *1004:CK 24.2143 
19 *636:100 *996:CK 5.75 
*END

*D_NET *637 0.00256979
*CONN
*I *990:CK I *D DFF_X1
*I *1030:CK I *D DFF_X1
*I *1022:CK I *D DFF_X1
*I *1078:CK I *D DFF_X1
*I *1202:A I *D BUF_X4
*I *1038:CK I *D DFF_X1
*I *1046:CK I *D DFF_X1
*I *1086:CK I *D DFF_X1
*I *1019:CK I *D DFF_X1
*I *1094:CK I *D DFF_X1
*I *1075:CK I *D DFF_X1
*I *1186:Z O *D BUF_X4
*CAP
1 *990:CK 0
2 *1030:CK 6.95009e-05
3 *1022:CK 8.55349e-06
4 *1078:CK 0
5 *1202:A 0
6 *1038:CK 2.70142e-05
7 *1046:CK 0
8 *1086:CK 0
9 *1019:CK 0.000115123
10 *1094:CK 0
11 *1075:CK 4.19998e-05
12 *1186:Z 1.25907e-05
13 *637:109 0.000120543
14 *637:78 9.67173e-05
15 *637:70 0.000104499
16 *637:41 0.000169993
17 *637:35 0.00013632
18 *637:31 0.000184035
19 *637:27 0.000112701
20 *637:25 8.76819e-05
21 *637:12 0.000127559
22 *637:8 0.000114976
23 *769:B *1019:CK 1.10948e-05
24 *769:B *637:41 1.80199e-05
25 *776:A *637:35 2.52154e-06
26 *780:A *1075:CK 3.58094e-06
27 *783:A *637:27 9.18388e-06
28 *783:A *637:31 4.66523e-06
29 *829:A *1019:CK 2.28343e-05
30 *832:A *637:25 3.35125e-05
31 *931:A1 *637:25 1.14339e-05
32 *933:A1 *637:70 0
33 *933:A2 *637:70 1.28577e-06
34 *933:B2 *637:41 1.82068e-05
35 *935:A2 *1030:CK 1.57311e-05
36 *935:A2 *637:8 7.19036e-06
37 *935:A2 *637:12 9.11897e-09
38 *935:A2 *637:109 2.51756e-05
39 *935:A3 *637:12 4.65017e-06
40 *935:A4 *1075:CK 2.39679e-06
41 *935:A4 *637:12 1.19839e-05
42 *1022:D *1022:CK 3.19164e-07
43 *1022:D *637:27 1.25189e-05
44 *1030:D *1030:CK 2.39679e-06
45 *1078:D *637:25 2.89806e-05
46 *1078:D *637:27 2.87248e-06
47 *1086:D *1019:CK 0
48 *1086:D *637:41 5.95143e-05
49 *1094:D *1019:CK 4.24673e-07
50 *1094:D *637:41 1.08112e-06
51 *190:97 *1038:CK 5.01004e-05
52 *190:97 *637:78 5.89663e-05
53 *196:28 *637:25 0.000143781
54 *208:22 *637:31 3.31821e-05
55 *208:22 *637:35 1.1429e-05
56 *208:22 *637:78 2.66752e-06
57 *208:36 *637:35 7.63605e-06
58 *211:18 *1019:CK 3.71274e-05
59 *211:44 *1019:CK 5.84443e-05
60 *211:44 *637:41 1.60494e-06
61 *212:36 *637:78 2.50734e-06
62 *223:35 *1075:CK 2.55787e-06
63 *224:29 *1030:CK 0
64 *224:29 *1075:CK 9.74263e-06
65 *224:29 *637:12 5.35117e-06
66 *224:29 *637:109 5.37072e-06
67 *227:79 *1038:CK 1.95465e-05
68 *227:79 *637:78 2.27603e-05
69 *270:14 *637:35 0
70 *270:14 *637:70 1.32348e-05
71 *291:14 *637:27 4.72588e-05
72 *494:8 *637:35 9.41771e-06
73 *502:8 *1019:CK 0
74 *518:8 *1030:CK 2.7703e-06
75 *531:8 *1019:CK 0
76 *603:83 *637:41 2.08098e-06
77 *626:33 *637:31 2.71119e-05
78 *626:33 *637:35 1.20697e-05
79 *630:35 *1030:CK 5.82752e-05
80 *630:35 *1075:CK 0
81 *632:70 *1019:CK 0
82 *632:70 *637:70 4.88571e-05
83 *633:25 *1030:CK 1.88682e-05
84 *633:25 *637:109 4.84981e-06
85 *633:29 *637:109 1.05022e-05
86 *633:46 *637:27 3.23723e-07
*RES
1 *1186:Z *637:8 6.67857 
2 *637:8 *637:12 5.35714 
3 *637:12 *1075:CK 9.75 
4 *637:12 *637:25 17.7143 
5 *637:25 *637:27 5.75 
6 *637:27 *637:31 14.0714 
7 *637:31 *637:35 13.3929 
8 *637:35 *637:41 12.3571 
9 *637:41 *1094:CK 10 
10 *637:41 *1019:CK 23.4643 
11 *637:35 *1086:CK 5 
12 *637:31 *637:70 9.75 
13 *637:70 *637:78 18.7143 
14 *637:78 *1046:CK 5 
15 *637:78 *1038:CK 9.75 
16 *637:70 *1202:A 5 
17 *637:27 *1078:CK 5 
18 *637:25 *1022:CK 5.92857 
19 *637:8 *637:109 6.75 
20 *637:109 *1030:CK 23.7143 
21 *637:109 *990:CK 5 
*END

*D_NET *638 0.00367543
*CONN
*I *1203:A I *D INV_X4
*I *968:CK I *D DFFR_X1
*I *973:CK I *D DFFR_X1
*I *972:CK I *D DFFR_X1
*I *974:CK I *D DFFR_X1
*I *975:CK I *D DFFR_X1
*I *1099:CK I *D DFF_X1
*I *1187:Z O *D BUF_X4
*CAP
1 *1203:A 8.54449e-05
2 *968:CK 0.000107969
3 *973:CK 0
4 *972:CK 5.53658e-05
5 *974:CK 2.15959e-05
6 *975:CK 0
7 *1099:CK 1.04603e-05
8 *1187:Z 0.000136223
9 *638:58 0.000168261
10 *638:47 0.000273752
11 *638:36 0.000365748
12 *638:25 0.00031354
13 *638:12 0.000185537
14 *638:10 0.000269262
15 *665:A *638:36 4.4596e-05
16 *680:A1 *638:47 6.68461e-05
17 *683:A1 *638:36 0
18 *685:A1 *1203:A 3.62228e-05
19 *687:A1 *638:10 9.20128e-06
20 *687:A2 *638:10 2.26864e-05
21 *723:A1 *1203:A 5.70047e-05
22 *723:A2 *638:12 1.63221e-05
23 *727:A1 *638:36 1.74934e-05
24 *728:A2 *638:47 2.26304e-06
25 *729:B *968:CK 0
26 *731:A1 *638:10 2.43582e-05
27 *731:A1 *638:12 9.01712e-05
28 *731:A2 *638:12 4.12796e-06
29 *739:A1 *638:10 5.66515e-06
30 *739:A2 *638:10 3.09411e-06
31 *741:A1 *638:25 7.19036e-06
32 *741:A2 *638:25 7.19036e-06
33 *745:A1 *1203:A 3.30047e-06
34 *745:A3 *1203:A 4.22802e-05
35 *942:B1 *638:36 0
36 *942:B2 *974:CK 4.37715e-05
37 *955:B *972:CK 4.26314e-06
38 *956:B *972:CK 0
39 *957:A *638:36 0
40 *957:A *638:47 0
41 *972:D *972:CK 5.21562e-05
42 *973:D *968:CK 2.51997e-05
43 *973:D *638:58 5.33151e-05
44 *973:RN *968:CK 1.35784e-05
45 *974:D *974:CK 4.29819e-05
46 *974:D *638:36 0
47 *974:D *638:47 6.44316e-05
48 *1166:A *638:36 2.83077e-06
49 *153:6 *972:CK 6.38328e-07
50 *158:14 *638:25 1.60494e-06
51 *158:14 *638:36 1.04603e-05
52 *170:14 *968:CK 5.97489e-05
53 *174:10 *968:CK 3.82926e-05
54 *174:10 *638:58 5.34427e-06
55 *174:12 *638:47 5.05057e-06
56 *174:12 *638:58 2.71064e-05
57 *174:14 *638:47 1.16229e-06
58 *174:20 *638:47 7.03946e-06
59 *177:27 *1203:A 2.39679e-06
60 *179:18 *638:25 8.60585e-06
61 *180:23 *1203:A 1.91498e-06
62 *180:23 *638:10 5.28925e-05
63 *180:23 *638:12 2.26301e-05
64 *181:80 *638:10 0
65 *205:16 *638:25 1.73981e-05
66 *205:16 *638:36 2.23944e-05
67 *206:40 *638:10 0
68 *216:18 *1203:A 1.62742e-05
69 *217:29 *638:36 2.61469e-06
70 *217:29 *638:47 0
71 *217:35 *638:36 3.38004e-05
72 *218:18 *1099:CK 3.3278e-05
73 *218:18 *638:12 9.93327e-05
74 *221:18 *638:47 2.10417e-05
75 *222:10 *638:10 2.04312e-06
76 *222:14 *638:12 1.20751e-06
77 *223:14 *974:CK 0
78 *223:14 *638:36 0
79 *223:14 *638:47 0
80 *225:63 *1099:CK 4.16464e-05
81 *225:63 *638:12 0.00012957
82 *231:14 *638:25 2.21937e-05
83 *231:27 *638:25 1.30373e-05
84 *231:27 *638:36 0
85 *232:8 *638:25 2.08903e-05
86 *599:139 *638:47 4.26792e-05
87 *599:159 *638:47 1.28582e-05
88 *599:159 *638:58 1.92618e-05
89 *610:12 *968:CK 2.1307e-05
90 *622:38 *638:10 5.11528e-05
91 *626:14 *638:10 3.88776e-05
92 *626:14 *638:25 1.19839e-05
*RES
1 *1187:Z *638:10 27.1429 
2 *638:10 *638:12 10.4286 
3 *638:12 *1099:CK 12.2857 
4 *638:12 *638:25 19.25 
5 *638:25 *975:CK 5 
6 *638:25 *638:36 26.1786 
7 *638:36 *974:CK 13.6429 
8 *638:36 *638:47 21.9643 
9 *638:47 *972:CK 16.75 
10 *638:47 *638:58 9.07143 
11 *638:58 *973:CK 10 
12 *638:58 *968:CK 25.5357 
13 *638:10 *1203:A 21.8571 
*END

*D_NET *639 0.00308599
*CONN
*I *1044:CK I *D DFF_X1
*I *967:CK I *D DFFR_X1
*I *961:CK I *D DFFR_X1
*I *976:CK I *D DFFR_X1
*I *971:CK I *D DFFR_X1
*I *969:CK I *D DFFR_X1
*I *970:CK I *D DFFR_X1
*I *1204:A I *D INV_X4
*I *1188:Z O *D BUF_X4
*CAP
1 *1044:CK 0.000144709
2 *967:CK 3.21427e-06
3 *961:CK 0
4 *976:CK 0
5 *971:CK 0.000129781
6 *969:CK 0
7 *970:CK 0
8 *1204:A 3.21069e-05
9 *1188:Z 0.000132804
10 *639:64 0.000308218
11 *639:54 0.000227477
12 *639:52 5.22552e-05
13 *639:50 0.000199958
14 *639:39 0.000158421
15 *639:28 0.000203869
16 *675:A1 *971:CK 0
17 *675:A2 *971:CK 8.27554e-05
18 *677:A *971:CK 4.79202e-06
19 *691:A2 *639:64 3.08976e-05
20 *692:A1 *639:64 2.74951e-06
21 *694:A2 *639:64 6.59107e-06
22 *701:A1 *639:28 1.28577e-06
23 *704:A3 *639:28 0
24 *708:A1 *639:28 7.19036e-06
25 *708:A3 *639:28 6.85774e-07
26 *729:A *971:CK 9.3437e-05
27 *729:B *971:CK 2.37916e-06
28 *869:B *967:CK 7.72792e-06
29 *869:B *639:54 9.43422e-05
30 *870:B *639:64 1.32348e-05
31 *871:A1 *639:64 5.4018e-07
32 *871:A3 *639:64 7.72792e-06
33 *872:B *639:50 0
34 *872:B *639:64 3.82997e-06
35 *906:B *639:64 6.55208e-06
36 *962:RN *1044:CK 3.5817e-05
37 *968:D *639:64 0
38 *968:RN *971:CK 2.88639e-05
39 *968:RN *639:64 4.51285e-05
40 *969:D *639:39 0
41 *969:D *639:50 2.89018e-05
42 *970:D *639:28 0
43 *976:D *971:CK 7.9309e-06
44 *1180:A *639:28 4.79202e-06
45 *1181:A *639:28 0
46 *154:27 *1204:A 0.000126294
47 *157:16 *639:39 2.59296e-05
48 *157:16 *639:50 1.72757e-05
49 *157:20 *639:28 6.50827e-06
50 *157:20 *639:39 3.20052e-05
51 *170:14 *971:CK 0
52 *170:14 *639:64 0
53 *174:10 *639:64 0
54 *183:23 *639:54 7.72537e-06
55 *183:23 *639:64 7.72792e-06
56 *184:50 *967:CK 5.33113e-06
57 *184:50 *639:54 9.93141e-05
58 *184:50 *639:64 7.72792e-06
59 *186:10 *639:64 0.000171597
60 *186:12 *639:64 3.07159e-05
61 *195:6 *639:28 0
62 *235:26 *639:39 1.39499e-06
63 *235:26 *639:64 2.21873e-05
64 *594:8 *1044:CK 4.96933e-05
65 *594:8 *639:50 1.33704e-05
66 *594:45 *639:50 3.30471e-05
67 *594:58 *639:64 2.53053e-05
68 *594:71 *639:28 3.07768e-05
69 *594:71 *639:39 5.06453e-05
70 *595:10 *639:64 0
71 *595:51 *1204:A 0.000127117
72 *596:10 *1044:CK 1.47255e-05
73 *597:10 *639:50 0
74 *597:32 *639:28 9.97704e-06
75 *599:75 *1044:CK 1.45251e-05
76 *599:96 *639:39 2.33389e-05
77 *599:104 *639:39 1.30391e-05
78 *608:7 *971:CK 7.72537e-06
*RES
1 *1188:Z *1204:A 27.0357 
2 *1188:Z *639:28 20.7857 
3 *639:28 *970:CK 10 
4 *639:28 *639:39 20.1786 
5 *639:39 *969:CK 5 
6 *639:39 *639:50 11.8929 
7 *639:50 *639:52 5 
8 *639:52 *639:54 9.75 
9 *639:54 *639:64 35.7857 
10 *639:64 *971:CK 33.5357 
11 *639:64 *976:CK 5 
12 *639:54 *961:CK 5 
13 *639:52 *967:CK 5.75 
14 *639:50 *1044:CK 28.2857 
*END

*D_NET *640 0.00238342
*CONN
*I *1033:CK I *D DFF_X1
*I *980:CK I *D DFF_X1
*I *1017:CK I *D DFF_X1
*I *1205:A I *D INV_X4
*I *1009:CK I *D DFF_X1
*I *985:CK I *D DFF_X1
*I *1043:CK I *D DFF_X1
*I *1189:Z O *D BUF_X4
*CAP
1 *1033:CK 0
2 *980:CK 0.000112035
3 *1017:CK 8.71307e-06
4 *1205:A 0.000117515
5 *1009:CK 3.90652e-05
6 *985:CK 0
7 *1043:CK 0.000140031
8 *1189:Z 7.71114e-05
9 *640:47 0.000173795
10 *640:16 0.000148744
11 *640:14 0.000153242
12 *640:10 0.000175604
13 *640:8 0.000134608
14 *640:6 7.71114e-05
15 *759:A *1043:CK 3.37286e-06
16 *759:B *1043:CK 1.61803e-06
17 *931:B1 *1043:CK 8.43215e-07
18 *931:B2 *1043:CK 4.04839e-05
19 *980:D *980:CK 6.38328e-07
20 *985:D *1043:CK 6.0061e-05
21 *985:D *640:14 2.20742e-06
22 *1017:D *1205:A 4.51313e-06
23 *1028:D *980:CK 5.3864e-05
24 *1033:D *640:47 2.39679e-06
25 *1099:D *1043:CK 8.12606e-05
26 *1189:A *1205:A 2.43548e-06
27 *191:62 *1043:CK 0
28 *196:12 *980:CK 0.000215352
29 *196:12 *640:10 6.63045e-05
30 *196:12 *640:14 6.49269e-05
31 *206:42 *640:6 0
32 *208:22 *1043:CK 8.56923e-06
33 *212:65 *980:CK 0
34 *216:81 *640:14 1.40722e-05
35 *216:126 *980:CK 3.76609e-05
36 *216:126 *640:10 8.20084e-06
37 *216:126 *640:14 1.52463e-06
38 *225:20 *1009:CK 5.84536e-05
39 *225:20 *1043:CK 8.03349e-06
40 *231:27 *1043:CK 1.86809e-06
41 *231:27 *640:16 0
42 *231:31 *1009:CK 0
43 *231:31 *1043:CK 2.75732e-05
44 *270:20 *640:14 0
45 *620:12 *1205:A 3.4682e-06
46 *621:12 *1205:A 6.38328e-07
47 *621:25 *1205:A 7.66905e-06
48 *621:25 *640:47 4.16737e-06
49 *622:38 *1205:A 6.66597e-06
50 *622:38 *640:6 1.13365e-05
51 *622:48 *1205:A 4.0926e-06
52 *622:48 *640:47 7.16336e-06
53 *626:14 *1043:CK 1.62062e-05
54 *632:26 *1205:A 9.62051e-07
55 *632:26 *640:6 8.54986e-05
56 *633:13 *1009:CK 1.80853e-05
57 *633:25 *1043:CK 1.65965e-05
58 *633:175 *1043:CK 5.94174e-07
59 *633:175 *640:10 4.43649e-06
60 *633:175 *640:14 7.20257e-05
*RES
1 *1189:Z *640:6 13.75 
2 *640:6 *640:8 5 
3 *640:8 *640:10 3.64286 
4 *640:10 *640:14 17.4643 
5 *640:14 *640:16 0.928572 
6 *640:16 *1043:CK 34.3214 
7 *640:16 *985:CK 5 
8 *640:14 *1009:CK 10.75 
9 *640:10 *640:47 9.75 
10 *640:47 *1205:A 16.8571 
11 *640:47 *1017:CK 5.92857 
12 *640:8 *980:CK 26.5357 
13 *640:6 *1033:CK 5 
*END

*D_NET *641 0.00253911
*CONN
*I *1012:CK I *D DFF_X1
*I *1100:CK I *D DFF_X1
*I *1036:CK I *D DFF_X1
*I *962:CK I *D DFFR_X1
*I *1206:A I *D INV_X4
*I *1028:CK I *D DFF_X1
*I *1068:CK I *D DFF_X1
*I *1020:CK I *D DFF_X1
*I *1190:Z O *D BUF_X4
*CAP
1 *1012:CK 4.89308e-05
2 *1100:CK 8.71307e-06
3 *1036:CK 0.00010787
4 *962:CK 0
5 *1206:A 6.09339e-06
6 *1028:CK 0.000107724
7 *1068:CK 0
8 *1020:CK 0
9 *1190:Z 4.12477e-05
10 *641:71 0.000212766
11 *641:58 0.000227987
12 *641:34 0.000186744
13 *641:32 0.000209652
14 *641:23 8.41558e-05
15 *641:19 0.000138888
16 *641:10 5.19697e-05
17 *742:B *1028:CK 2.14856e-06
18 *823:S *1028:CK 7.03073e-06
19 *830:B *641:10 7.72537e-06
20 *912:A1 *1036:CK 5.11574e-06
21 *912:B1 *1036:CK 1.53342e-05
22 *914:B2 *1012:CK 6.03455e-05
23 *916:A4 *641:23 2.14856e-06
24 *918:A *641:58 2.03683e-05
25 *918:A *641:71 3.98434e-05
26 *918:B2 *641:71 0
27 *962:D *641:71 0
28 *962:RN *1036:CK 0.000153322
29 *962:RN *641:71 3.68681e-05
30 *1020:D *641:10 4.43546e-05
31 *1064:D *1028:CK 0
32 *1068:D *641:23 5.75407e-06
33 *188:134 *641:71 0
34 *191:29 *1012:CK 2.0122e-05
35 *191:29 *641:10 6.67494e-05
36 *191:29 *641:19 5.05854e-05
37 *193:32 *1012:CK 7.72537e-06
38 *193:38 *1012:CK 3.6905e-06
39 *196:8 *641:23 8.06163e-06
40 *202:48 *641:23 3.89107e-05
41 *202:48 *641:32 7.72537e-06
42 *234:47 *641:23 0
43 *234:47 *641:32 0
44 *270:20 *1028:CK 2.1739e-05
45 *270:20 *641:34 3.81756e-05
46 *270:20 *641:58 1.46485e-05
47 *274:14 *641:23 5.75619e-05
48 *508:10 *1036:CK 0
49 *540:8 *1012:CK 0
50 *548:10 *1012:CK 4.38852e-05
51 *599:211 *641:71 2.97531e-05
52 *603:124 *641:10 0.000104676
53 *603:124 *641:19 4.42084e-06
54 *603:137 *1012:CK 3.91119e-05
55 *603:137 *641:19 5.00437e-05
56 *623:10 *1028:CK 1.95366e-05
57 *623:10 *641:34 4.03498e-05
58 *623:10 *641:58 1.87688e-05
59 *627:16 *1028:CK 1.20429e-05
60 *627:16 *1206:A 0
61 *631:55 *1206:A 7.72537e-06
*RES
1 *1190:Z *641:10 17.8929 
2 *641:10 *1020:CK 10 
3 *641:10 *641:19 2.96429 
4 *641:19 *641:23 15.25 
5 *641:23 *1068:CK 5 
6 *641:23 *641:32 5.75 
7 *641:32 *641:34 10.4286 
8 *641:34 *1028:CK 22.8571 
9 *641:34 *1206:A 10.75 
10 *641:32 *641:58 12.4643 
11 *641:58 *962:CK 10 
12 *641:58 *641:71 17.6071 
13 *641:71 *1036:CK 19.75 
14 *641:71 *1100:CK 5.92857 
15 *641:19 *1012:CK 18.0357 
*END

*D_NET *642 0.00263196
*CONN
*I *983:CK I *D DFF_X1
*I *999:CK I *D DFF_X1
*I *981:CK I *D DFF_X1
*I *984:CK I *D DFF_X1
*I *1000:CK I *D DFF_X1
*I *1207:A I *D BUF_X4
*I *1077:CK I *D DFF_X1
*I *1080:CK I *D DFF_X1
*I *1096:CK I *D DFF_X1
*I *1088:CK I *D DFF_X1
*I *992:CK I *D DFF_X1
*I *1191:Z O *D BUF_X4
*CAP
1 *983:CK 5.69724e-05
2 *999:CK 0
3 *981:CK 2.64846e-05
4 *984:CK 3.47747e-05
5 *1000:CK 4.21377e-05
6 *1207:A 0
7 *1077:CK 3.86292e-05
8 *1080:CK 0
9 *1096:CK 0
10 *1088:CK 0
11 *992:CK 6.51163e-05
12 *1191:Z 2.91018e-05
13 *642:99 6.93028e-05
14 *642:72 0.000191593
15 *642:70 0.000141165
16 *642:24 0.000141759
17 *642:20 0.00011124
18 *642:18 6.60681e-05
19 *642:14 0.000163736
20 *642:12 0.000115885
21 *642:10 0.000100125
22 *642:8 0.000119307
23 *720:A1 *642:72 3.08753e-05
24 *732:B *642:14 0
25 *732:B *642:18 0
26 *738:B *642:14 0
27 *738:B *642:20 2.75346e-06
28 *738:B *642:24 4.14859e-05
29 *744:A *642:72 1.86809e-06
30 *744:B *642:72 0
31 *744:S *642:72 1.87637e-06
32 *752:A *642:24 4.21607e-06
33 *854:S *642:72 2.71958e-06
34 *866:A *642:72 2.43548e-06
35 *866:B *981:CK 4.81463e-05
36 *866:B *642:72 6.11142e-05
37 *866:S *984:CK 0
38 *866:S *642:72 3.18123e-05
39 *868:S *642:8 4.45934e-05
40 *909:B1 *1000:CK 1.57087e-05
41 *909:B1 *642:72 1.80538e-05
42 *924:A2 *981:CK 4.57495e-05
43 *924:A2 *642:72 5.50748e-05
44 *946:A1 *983:CK 4.88571e-05
45 *946:B2 *642:8 7.34533e-06
46 *984:D *642:72 3.83783e-05
47 *992:D *992:CK 6.38328e-07
48 *1080:D *642:14 0.000142531
49 *1080:D *642:18 8.00929e-05
50 *214:12 *642:72 6.38328e-07
51 *214:14 *983:CK 2.48043e-05
52 *214:14 *642:10 5.40374e-05
53 *214:14 *642:12 1.45779e-05
54 *214:14 *642:14 6.32461e-06
55 *214:14 *642:99 1.14365e-05
56 *225:101 *1077:CK 4.88546e-05
57 *232:50 *642:24 7.34401e-06
58 *232:67 *642:20 5.74716e-05
59 *232:67 *642:24 1.40203e-05
60 *302:14 *983:CK 4.88571e-05
61 *607:35 *642:24 4.79358e-06
62 *607:41 *642:24 4.86762e-05
63 *607:60 *984:CK 1.32323e-05
64 *607:60 *1000:CK 0
65 *618:58 *992:CK 1.07739e-05
66 *618:58 *642:24 3.46864e-06
67 *618:79 *642:20 2.29221e-05
68 *626:76 *642:14 0
69 *627:71 *1077:CK 0
*RES
1 *1191:Z *642:8 14.25 
2 *642:8 *642:10 8.39286 
3 *642:10 *642:12 2.28572 
4 *642:12 *642:14 11.1071 
5 *642:14 *642:18 9.32143 
6 *642:18 *642:20 5.75 
7 *642:20 *642:24 11.1786 
8 *642:24 *992:CK 12.5357 
9 *642:24 *1088:CK 5 
10 *642:20 *1096:CK 5 
11 *642:18 *1080:CK 5 
12 *642:14 *1077:CK 14.75 
13 *642:12 *1207:A 10 
14 *642:10 *642:70 5 
15 *642:70 *642:72 16.75 
16 *642:72 *1000:CK 9.67857 
17 *642:72 *984:CK 9.89286 
18 *642:70 *981:CK 9.75 
19 *642:8 *642:99 1.60714 
20 *642:99 *999:CK 10 
21 *642:99 *983:CK 18.3929 
*END

*D_NET *643 0.00231315
*CONN
*I *1029:CK I *D DFF_X1
*I *997:CK I *D DFF_X1
*I *993:CK I *D DFF_X1
*I *1005:CK I *D DFF_X1
*I *1008:CK I *D DFF_X1
*I *1072:CK I *D DFF_X1
*I *1208:A I *D INV_X4
*I *1031:CK I *D DFF_X1
*I *1192:Z O *D BUF_X4
*CAP
1 *1029:CK 0
2 *997:CK 0.00012528
3 *993:CK 4.62365e-05
4 *1005:CK 0
5 *1008:CK 4.21168e-05
6 *1072:CK 0
7 *1208:A 8.00996e-05
8 *1031:CK 4.22e-05
9 *1192:Z 4.22e-05
10 *643:70 0.000284616
11 *643:45 0.000149606
12 *643:41 0.000129881
13 *643:39 0.000167688
14 *643:35 8.12639e-05
15 *643:18 0.000129166
16 *993:CK *1025:CK 2.39679e-06
17 *997:CK *1025:CK 7.72792e-06
18 *997:CK *1037:CK 0.000154482
19 *710:A1 *1008:CK 2.54506e-05
20 *798:A *1031:CK 8.43215e-07
21 *820:A *997:CK 1.25189e-05
22 *820:S *997:CK 3.09411e-06
23 *824:S *643:35 7.19036e-06
24 *826:A *1208:A 0
25 *826:A *643:35 0
26 *826:S *1208:A 0.000118946
27 *826:S *643:35 6.36399e-05
28 *845:B *643:35 2.89018e-05
29 *920:A1 *643:70 4.16485e-05
30 *921:A1 *997:CK 5.99828e-06
31 *921:A2 *997:CK 7.72792e-06
32 *923:A3 *997:CK 1.01605e-05
33 *950:A1 *1031:CK 0
34 *950:A2 *1031:CK 0
35 *950:A2 *643:35 3.71341e-05
36 *950:A2 *643:39 5.91602e-05
37 *1025:D *993:CK 2.16072e-07
38 *1025:D *997:CK 5.91521e-06
39 *1031:D *1031:CK 6.07323e-06
40 *1037:D *997:CK 0
41 *1172:A *643:70 1.1103e-06
42 *190:97 *1208:A 0
43 *191:80 *1008:CK 6.0406e-05
44 *206:62 *997:CK 1.28577e-06
45 *206:62 *643:35 2.08098e-06
46 *223:83 *643:70 1.23214e-06
47 *224:40 *643:39 4.88571e-05
48 *224:96 *643:35 2.92304e-05
49 *224:96 *643:39 1.26998e-05
50 *233:48 *993:CK 0
51 *233:48 *997:CK 0
52 *480:10 *643:45 0.000106372
53 *536:8 *643:45 0
54 *607:82 *643:70 0
55 *629:48 *1208:A 1.79295e-05
56 *632:56 *643:41 7.64946e-06
57 *632:56 *643:45 2.08803e-05
58 *632:56 *643:70 2.77009e-06
59 *633:275 *993:CK 8.77996e-06
60 *633:281 *1208:A 3.51992e-06
61 *633:281 *643:41 1.06678e-05
62 *633:281 *643:45 2.12997e-05
63 *633:281 *643:70 3.50537e-05
64 *633:285 *1208:A 4.55949e-09
65 *633:308 *1208:A 1.73809e-06
*RES
1 *1192:Z *1031:CK 14.25 
2 *1192:Z *643:18 10 
3 *643:18 *1208:A 20.1071 
4 *643:18 *643:35 13.0714 
5 *643:35 *643:39 10.75 
6 *643:39 *643:41 2.96429 
7 *643:41 *643:45 19.5 
8 *643:45 *1072:CK 5 
9 *643:45 *1008:CK 11.6786 
10 *643:41 *1005:CK 10 
11 *643:39 *643:70 17.4643 
12 *643:70 *993:CK 9.75 
13 *643:70 *997:CK 22.3571 
14 *643:35 *1029:CK 5 
*END

*D_NET *644 0.0031645
*CONN
*I *1013:CK I *D DFF_X1
*I *1045:CK I *D DFF_X1
*I *1047:CK I *D DFF_X1
*I *1023:CK I *D DFF_X1
*I *1071:CK I *D DFF_X1
*I *1079:CK I *D DFF_X1
*I *991:CK I *D DFF_X1
*I *1069:CK I *D DFF_X1
*I *1093:CK I *D DFF_X1
*I *1061:CK I *D DFF_X1
*I *989:CK I *D DFF_X1
*I *1087:CK I *D DFF_X1
*I *1007:CK I *D DFF_X1
*I *1055:CK I *D DFF_X1
*I *1193:Z O *D BUF_X4
*CAP
1 *1013:CK 0
2 *1045:CK 5.33335e-05
3 *1047:CK 4.86256e-05
4 *1023:CK 0
5 *1071:CK 0
6 *1079:CK 0
7 *991:CK 3.08061e-05
8 *1069:CK 9.85458e-05
9 *1093:CK 0
10 *1061:CK 5.7562e-05
11 *989:CK 8.71307e-06
12 *1087:CK 6.70927e-05
13 *1007:CK 0
14 *1055:CK 0
15 *1193:Z 0.000157659
16 *644:151 0.000118099
17 *644:124 0.000161641
18 *644:79 0.000141108
19 *644:66 0.000179325
20 *644:55 0.000188174
21 *644:47 0.000179812
22 *644:43 4.87457e-05
23 *644:30 0.000218751
24 *644:28 0.000238299
25 *644:17 0.000101721
26 *644:15 0.000233492
27 *644:8 0.000198289
28 *768:A *644:66 1.4891e-05
29 *768:B *1069:CK 1.53342e-05
30 *768:B *644:79 0
31 *768:S *1061:CK 1.43542e-05
32 *768:S *644:66 1.17793e-05
33 *777:A *991:CK 1.46241e-05
34 *777:A *1087:CK 2.38077e-06
35 *777:A *644:30 3.53824e-06
36 *777:A *644:55 5.86754e-06
37 *777:B *644:55 0
38 *777:S *644:55 7.72806e-05
39 *784:S *1069:CK 0
40 *784:S *1087:CK 0
41 *784:S *644:47 0
42 *810:A *644:151 1.52083e-06
43 *810:B *1045:CK 1.18608e-05
44 *810:B *644:151 3.76093e-06
45 *833:A *1047:CK 0
46 *847:A *644:15 6.65423e-06
47 *847:S *644:8 0
48 *847:S *644:15 5.14716e-06
49 *859:B *644:55 1.73151e-05
50 *859:S *644:55 0
51 *926:B1 *1069:CK 5.56848e-05
52 *927:A1 *1069:CK 6.07323e-06
53 *927:B2 *1069:CK 1.19839e-05
54 *928:A3 *1069:CK 4.32319e-05
55 *943:B2 *1047:CK 0
56 *944:A1 *644:15 0
57 *944:A1 *644:28 1.07393e-05
58 *945:B2 *644:30 4.01727e-06
59 *947:A1 *644:124 2.0679e-05
60 *947:A3 *644:124 0
61 *949:A1 *644:151 0
62 *989:D *644:55 3.23363e-05
63 *991:D *991:CK 0
64 *991:D *644:47 2.39679e-06
65 *991:D *644:55 2.16072e-07
66 *1007:D *644:124 0
67 *1055:D *644:8 0
68 *1055:D *644:15 2.39679e-06
69 *1071:D *644:28 0
70 *1071:D *644:30 0
71 *1079:D *1087:CK 4.55213e-05
72 *1079:D *644:30 0
73 *1087:D *1087:CK 5.10662e-06
74 *1087:D *644:47 0
75 *1093:D *644:66 3.35822e-05
76 *1093:D *644:79 1.9871e-06
77 *181:54 *644:151 2.61203e-05
78 *181:73 *1047:CK 2.07669e-05
79 *226:110 *644:151 2.48018e-05
80 *232:67 *1061:CK 1.11662e-05
81 *232:67 *644:55 2.52965e-06
82 *232:67 *644:66 1.59723e-05
83 *302:14 *1045:CK 2.60964e-05
84 *302:14 *644:8 2.22688e-05
85 *302:14 *644:15 0
86 *302:14 *644:151 2.71958e-06
87 *495:8 *1087:CK 0
88 *495:8 *644:47 0
89 *535:8 *644:15 0
90 *606:48 *644:8 0
91 *607:9 *644:66 0
*RES
1 *1193:Z *644:8 15.25 
2 *644:8 *1055:CK 5 
3 *644:8 *644:15 10.25 
4 *644:15 *644:17 1.60714 
5 *644:17 *1007:CK 5 
6 *644:17 *644:28 14.0714 
7 *644:28 *644:30 15.1786 
8 *644:30 *1087:CK 18.0357 
9 *644:30 *644:43 5 
10 *644:43 *644:47 9.75 
11 *644:47 *644:55 17.7857 
12 *644:55 *989:CK 5.92857 
13 *644:55 *644:66 15.25 
14 *644:66 *1061:CK 16.6786 
15 *644:66 *644:79 3.64286 
16 *644:79 *1093:CK 10 
17 *644:79 *1069:CK 21.7857 
18 *644:47 *991:CK 13.6429 
19 *644:43 *1079:CK 5 
20 *644:28 *1071:CK 10 
21 *644:15 *644:124 21.7857 
22 *644:124 *1023:CK 5 
23 *644:124 *1047:CK 10.6786 
24 *1193:Z *644:151 22.3929 
25 *644:151 *1045:CK 11.6786 
26 *644:151 *1013:CK 5 
*END

*D_NET *645 0.00309342
*CONN
*I *1101:CK I *D DFF_X1
*I *1053:CK I *D DFF_X1
*I *1209:A I *D INV_X2
*I *963:CK I *D DFFR_X1
*I *965:CK I *D DFFR_X1
*I *1021:CK I *D DFF_X1
*I *1085:CK I *D DFF_X1
*I *1103:CK I *D DFF_X1
*I *1095:CK I *D DFF_X1
*I *1015:CK I *D DFF_X1
*I *1063:CK I *D DFF_X1
*I *1039:CK I *D DFF_X1
*I *1194:Z O *D BUF_X4
*CAP
1 *1101:CK 4.77658e-05
2 *1053:CK 5.43634e-06
3 *1209:A 0
4 *963:CK 2.62449e-05
5 *965:CK 3.27744e-05
6 *1021:CK 0
7 *1085:CK 0
8 *1103:CK 0
9 *1095:CK 0
10 *1015:CK 1.37478e-05
11 *1063:CK 0.000110238
12 *1039:CK 0.000131188
13 *1194:Z 0
14 *645:116 0.000119068
15 *645:89 0.000124489
16 *645:80 0.000129351
17 *645:69 0.000117943
18 *645:65 0.000125973
19 *645:56 0.000133351
20 *645:29 0.000166584
21 *645:27 8.13471e-05
22 *645:10 0.000184593
23 *645:8 9.98459e-05
24 *645:6 8.96141e-05
25 *763:A *1039:CK 3.48838e-06
26 *763:A *645:10 2.19296e-06
27 *763:S *645:27 8.71894e-06
28 *763:S *645:29 2.02052e-05
29 *775:A *645:80 0
30 *775:A *645:89 0
31 *775:B *645:80 6.84316e-05
32 *819:B *1039:CK 2.65226e-05
33 *840:A *1063:CK 4.7968e-05
34 *840:A *645:29 4.97191e-06
35 *919:B2 *645:116 1.90574e-06
36 *922:A1 *965:CK 0
37 *922:B2 *645:89 0
38 *929:A3 *645:65 0
39 *943:A2 *1039:CK 0.000110748
40 *943:B1 *645:89 0
41 *943:B2 *1039:CK 0
42 *949:A2 *1039:CK 6.05817e-05
43 *950:B2 *1063:CK 0
44 *952:A1 *645:65 4.36658e-06
45 *952:A1 *645:69 2.75346e-06
46 *952:A3 *645:56 0
47 *952:A3 *645:65 4.26436e-05
48 *952:A4 *1039:CK 9.28375e-05
49 *952:A4 *645:10 1.22051e-05
50 *952:A4 *645:27 7.19036e-06
51 *952:A4 *645:56 1.54284e-05
52 *952:A4 *645:65 0
53 *953:A1 *645:69 0
54 *953:A1 *645:80 0
55 *953:A3 *645:65 0
56 *953:A3 *645:69 1.43238e-06
57 *963:D *963:CK 3.09143e-06
58 *1021:D *645:80 8.43215e-07
59 *1053:D *1053:CK 1.0303e-05
60 *1053:D *1101:CK 1.8615e-05
61 *1053:D *645:116 5.37467e-05
62 *1063:D *1063:CK 6.38328e-07
63 *1095:D *645:29 3.23723e-07
64 *1101:D *1101:CK 8.43215e-07
65 *191:82 *1039:CK 8.26038e-06
66 *196:105 *963:CK 0
67 *196:105 *645:89 0
68 *225:26 *1101:CK 3.19164e-07
69 *226:110 *1039:CK 1.74984e-05
70 *226:110 *645:8 3.4802e-05
71 *226:110 *645:10 9.2316e-06
72 *226:110 *645:116 5.67391e-05
73 *309:22 *645:69 4.88546e-05
74 *309:22 *645:80 4.69953e-05
75 *581:10 *1101:CK 1.85421e-06
76 *600:29 *1101:CK 4.86669e-06
77 *604:36 *963:CK 1.97923e-05
78 *604:36 *965:CK 4.45934e-05
79 *604:36 *645:80 1.29947e-05
80 *604:36 *645:89 0.000184592
81 *604:59 *1053:CK 1.0303e-05
82 *604:59 *1101:CK 1.70654e-05
83 *606:145 *1039:CK 5.37652e-06
84 *606:166 *1039:CK 1.14751e-05
85 *606:166 *645:56 1.74934e-05
86 *606:174 *1015:CK 3.19164e-07
87 *606:174 *1063:CK 7.74932e-06
88 *606:174 *645:27 7.03251e-06
89 *606:174 *645:29 1.74274e-05
90 *606:174 *645:56 1.26998e-05
91 *606:191 *1063:CK 0
92 *633:308 *645:8 2.16603e-05
93 *633:308 *645:10 9.56207e-06
94 *633:320 *1101:CK 7.83546e-06
95 *633:320 *645:8 1.43544e-05
96 *633:320 *645:116 7.91255e-05
*RES
1 *1194:Z *645:6 10 
2 *645:6 *645:8 5 
3 *645:8 *645:10 2.28572 
4 *645:10 *1039:CK 29.8929 
5 *645:10 *645:27 8.75 
6 *645:27 *645:29 5.75 
7 *645:29 *1063:CK 17.1071 
8 *645:29 *1015:CK 6.60714 
9 *645:27 *1095:CK 5 
10 *645:8 *645:56 11.75 
11 *645:56 *1103:CK 5 
12 *645:56 *645:65 8.39286 
13 *645:65 *645:69 7.35715 
14 *645:69 *1085:CK 5 
15 *645:69 *645:80 14.0714 
16 *645:80 *1021:CK 10 
17 *645:80 *645:89 9.75 
18 *645:89 *965:CK 14.25 
19 *645:89 *963:CK 13.0357 
20 *645:65 *1209:A 5 
21 *645:6 *645:116 11.7857 
22 *645:116 *1053:CK 11 
23 *645:116 *1101:CK 15.3571 
*END

*D_NET *646 0.00280321
*CONN
*I *1026:CK I *D DFF_X1
*I *1210:A I *D INV_X4
*I *986:CK I *D DFF_X1
*I *994:CK I *D DFF_X1
*I *977:CK I *D DFF_X1
*I *1037:CK I *D DFF_X1
*I *1025:CK I *D DFF_X1
*I *1081:CK I *D DFF_X1
*I *1195:Z O *D BUF_X4
*CAP
1 *1026:CK 0.000146785
2 *1210:A 7.23938e-06
3 *986:CK 3.93871e-05
4 *994:CK 0
5 *977:CK 8.51215e-05
6 *1037:CK 0.000135199
7 *1025:CK 5.68764e-06
8 *1081:CK 5.61465e-06
9 *1195:Z 0
10 *646:70 0.000170987
11 *646:54 6.83583e-05
12 *646:25 0.000280215
13 *646:21 0.00022445
14 *646:12 5.00573e-05
15 *646:10 9.55583e-05
16 *646:6 3.91073e-05
17 *849:S *646:25 9.0876e-06
18 *863:S *1210:A 7.19036e-06
19 *863:S *646:10 6.84316e-05
20 *863:S *646:70 6.28503e-05
21 *894:A2 *1026:CK 0
22 *923:A3 *1037:CK 5.43947e-06
23 *977:D *977:CK 8.43215e-07
24 *993:CK *1025:CK 2.39679e-06
25 *997:CK *1025:CK 7.72792e-06
26 *997:CK *1037:CK 0.000154482
27 *1026:D *1026:CK 3.19164e-07
28 *1037:D *1037:CK 1.98272e-06
29 *206:42 *977:CK 6.40152e-06
30 *209:31 *1210:A 2.24822e-06
31 *212:65 *1210:A 1.32323e-05
32 *224:57 *977:CK 0
33 *226:61 *1026:CK 3.49863e-05
34 *226:61 *646:70 2.72417e-06
35 *226:82 *1026:CK 2.24327e-06
36 *230:35 *986:CK 2.6197e-05
37 *230:35 *646:12 7.21335e-06
38 *230:35 *646:54 1.2272e-05
39 *245:12 *1026:CK 0.000113082
40 *245:12 *646:10 0.000119621
41 *245:12 *646:70 7.98408e-05
42 *458:8 *1026:CK 1.83288e-05
43 *489:12 *977:CK 1.63123e-05
44 *489:12 *646:25 1.40285e-05
45 *600:29 *1037:CK 0.000148979
46 *600:37 *1037:CK 3.41847e-05
47 *607:82 *646:25 0
48 *621:42 *986:CK 5.88958e-05
49 *621:42 *1081:CK 7.72537e-06
50 *621:42 *646:12 6.20945e-05
51 *621:42 *646:54 3.40094e-05
52 *622:61 *977:CK 9.43175e-06
53 *622:61 *1081:CK 9.57492e-07
54 *622:61 *646:12 5.44403e-06
55 *622:63 *646:10 5.48953e-05
56 *627:26 *1026:CK 9.60282e-05
57 *631:66 *1026:CK 0
58 *631:76 *1026:CK 9.75599e-06
59 *633:275 *1025:CK 3.09143e-06
60 *633:275 *1037:CK 4.9678e-06
61 *633:281 *646:25 1.07633e-05
62 *633:367 *977:CK 2.99974e-05
63 *633:367 *646:25 8.87357e-05
*RES
1 *1195:Z *646:6 10 
2 *646:6 *646:10 11.3571 
3 *646:10 *646:12 6.25 
4 *646:12 *1081:CK 5.75 
5 *646:12 *646:21 5 
6 *646:21 *646:25 20.8571 
7 *646:25 *1025:CK 5.75 
8 *646:25 *1037:CK 26.3572 
9 *646:21 *977:CK 20.25 
10 *646:10 *646:54 3.75 
11 *646:54 *994:CK 5 
12 *646:54 *986:CK 11.6786 
13 *646:6 *646:70 4.32143 
14 *646:70 *1210:A 11.25 
15 *646:70 *1026:CK 30.6072 
*END

*D_NET *647 0.00230922
*CONN
*I *1016:CK I *D DFF_X1
*I *1104:CK I *D DFF_X1
*I *1040:CK I *D DFF_X1
*I *966:CK I *D DFFR_X1
*I *1024:CK I *D DFF_X1
*I *1056:CK I *D DFF_X1
*I *1048:CK I *D DFF_X1
*I *1032:CK I *D DFF_X1
*I *1064:CK I *D DFF_X1
*I *1211:A I *D BUF_X4
*I *1196:Z O *D BUF_X4
*CAP
1 *1016:CK 0
2 *1104:CK 4.59963e-05
3 *1040:CK 0
4 *966:CK 0
5 *1024:CK 0
6 *1056:CK 0
7 *1048:CK 2.07921e-05
8 *1032:CK 0
9 *1064:CK 5.65149e-05
10 *1211:A 7.54015e-06
11 *1196:Z 0.00010938
12 *647:101 0.000145423
13 *647:92 0.000173623
14 *647:79 0.000185781
15 *647:68 0.000172699
16 *647:27 0.000162301
17 *647:23 0.000162776
18 *647:19 0.000105875
19 *647:8 0.000125482
20 *707:A4 *1048:CK 4.09461e-05
21 *707:A4 *647:27 0.000170018
22 *721:A1 *647:79 1.97289e-05
23 *721:A1 *647:92 7.35912e-06
24 *722:A *647:79 1.69241e-05
25 *722:A *647:92 2.48069e-05
26 *734:B *647:101 5.7295e-06
27 *736:A *647:27 0
28 *740:A *647:68 0
29 *742:B *1064:CK 0
30 *891:B1 *647:68 0
31 *891:B1 *647:79 0
32 *959:RN *647:92 0
33 *966:D *647:92 4.24402e-05
34 *1024:D *647:68 2.87411e-05
35 *1032:D *1064:CK 2.75346e-06
36 *1048:D *647:19 0
37 *1048:D *647:23 8.43215e-07
38 *1064:D *1064:CK 1.40154e-06
39 *1104:D *1104:CK 4.99246e-05
40 *1104:D *647:101 3.68681e-05
41 *178:113 *647:68 8.43215e-07
42 *181:109 *647:8 6.88146e-06
43 *181:109 *647:19 1.31488e-05
44 *181:109 *647:23 4.93896e-05
45 *181:109 *647:68 1.33576e-05
46 *181:109 *647:79 1.43238e-06
47 *184:73 *647:92 2.26406e-05
48 *184:73 *647:101 0
49 *184:92 *647:92 4.21607e-06
50 *202:48 *1048:CK 0
51 *214:14 *647:79 0.000139849
52 *234:47 *1211:A 0
53 *234:47 *647:8 6.66538e-06
54 *234:47 *647:19 1.18572e-05
55 *234:47 *647:23 0
56 *552:12 *647:68 8.09419e-06
57 *552:12 *647:79 1.04275e-05
58 *599:211 *1104:CK 1.22595e-05
59 *599:211 *647:92 0
60 *599:211 *647:101 2.43773e-05
61 *627:16 *1064:CK 6.11142e-05
*RES
1 *1196:Z *647:8 10.3571 
2 *647:8 *1211:A 5.92857 
3 *647:8 *647:19 8.03572 
4 *647:19 *647:23 9.75 
5 *647:23 *647:27 17.4643 
6 *647:27 *1064:CK 12.3571 
7 *647:27 *1032:CK 5 
8 *647:23 *1048:CK 12.2857 
9 *647:19 *1056:CK 5 
10 *1196:Z *647:68 22.3571 
11 *647:68 *1024:CK 5 
12 *647:68 *647:79 18.2143 
13 *647:79 *966:CK 10 
14 *647:79 *647:92 14.8929 
15 *647:92 *1040:CK 5 
16 *647:92 *647:101 12.5357 
17 *647:101 *1104:CK 11.3571 
18 *647:101 *1016:CK 5 
*END

*D_NET *648 0.0030438
*CONN
*I *1065:CK I *D DFF_X1
*I *1001:CK I *D DFF_X1
*I *1002:CK I *D DFF_X1
*I *1074:CK I *D DFF_X1
*I *1097:CK I *D DFF_X1
*I *1212:A I *D BUF_X4
*I *1082:CK I *D DFF_X1
*I *1057:CK I *D DFF_X1
*I *1089:CK I *D DFF_X1
*I *1090:CK I *D DFF_X1
*I *1073:CK I *D DFF_X1
*I *1197:Z O *D BUF_X4
*CAP
1 *1065:CK 0.000103543
2 *1001:CK 7.21275e-05
3 *1002:CK 0
4 *1074:CK 0.000129888
5 *1097:CK 0
6 *1212:A 0
7 *1082:CK 0
8 *1057:CK 2.72516e-05
9 *1089:CK 3.7703e-05
10 *1090:CK 0
11 *1073:CK 5.93977e-05
12 *1197:Z 4.51736e-05
13 *648:105 0.000261171
14 *648:94 0.000129336
15 *648:78 0.000129888
16 *648:48 0.000166305
17 *648:39 0.000172505
18 *648:33 0.000133353
19 *648:29 0.000121159
20 *648:14 0.000140524
21 *648:12 6.12595e-05
22 *648:8 0.000128102
23 *757:A *648:8 9.51196e-06
24 *757:S *648:33 0
25 *772:A *648:39 4.37715e-05
26 *772:A *648:48 6.3012e-05
27 *779:S *1074:CK 0
28 *799:A *1065:CK 4.26343e-05
29 *799:S *1065:CK 2.43548e-06
30 *806:S *1065:CK 0
31 *841:B *1074:CK 0
32 *842:B *1074:CK 7.66905e-06
33 *874:B1 *1057:CK 0
34 *874:B1 *648:48 0
35 *875:A1 *1001:CK 6.44862e-05
36 *875:B1 *1065:CK 3.76527e-05
37 *875:B1 *648:105 1.77822e-05
38 *875:B2 *1001:CK 4.46232e-05
39 *877:A1 *648:8 1.80259e-05
40 *877:A1 *648:12 1.66988e-05
41 *877:A1 *648:94 4.79358e-06
42 *877:B2 *648:8 8.43215e-07
43 *877:B2 *648:94 1.38361e-05
44 *877:B2 *648:105 5.86754e-06
45 *892:A1 *1001:CK 3.09411e-06
46 *892:B1 *648:94 2.23871e-06
47 *892:B1 *648:105 9.57492e-07
48 *1002:D *648:94 6.38328e-07
49 *1002:D *648:105 1.27666e-06
50 *1057:D *1057:CK 5.46453e-05
51 *1057:D *1089:CK 7.72537e-06
52 *1074:D *1074:CK 2.75346e-06
53 *1082:D *648:39 0
54 *1089:D *1089:CK 7.34989e-06
55 *1090:D *648:39 2.75346e-06
56 *1097:D *1073:CK 1.32348e-05
57 *1097:D *1074:CK 0
58 *1097:D *648:29 7.52784e-06
59 *184:146 *648:12 4.51771e-06
60 *184:146 *648:105 2.39521e-05
61 *188:106 *1073:CK 5.54348e-05
62 *188:106 *648:12 0.000113333
63 *188:106 *648:14 7.772e-05
64 *196:103 *1065:CK 0
65 *196:103 *648:105 0
66 *199:33 *1057:CK 0
67 *199:33 *648:48 0
68 *203:35 *1065:CK 4.79629e-05
69 *203:39 *1065:CK 0.000143483
70 *209:31 *1089:CK 1.69265e-05
71 *209:31 *648:8 6.0973e-06
72 *230:35 *648:29 0
73 *230:35 *648:33 0
74 *230:35 *648:39 0
75 *230:37 *1074:CK 9.93822e-05
76 *230:37 *648:29 0
77 *230:37 *648:94 0
78 *465:12 *1057:CK 1.11168e-06
79 *497:14 *1057:CK 5.10087e-06
80 *530:8 *1001:CK 2.52965e-06
81 *600:13 *1073:CK 7.37789e-06
82 *600:19 *1073:CK 2.16072e-07
83 *600:19 *648:29 0
84 *600:23 *648:33 0
85 *625:41 *1073:CK 8.22442e-06
86 *625:41 *648:12 1.15186e-06
87 *625:41 *648:14 1.27505e-05
88 *627:43 *648:48 0
*RES
1 *1197:Z *648:8 10.1786 
2 *648:8 *648:12 11.3571 
3 *648:12 *648:14 4.32143 
4 *648:14 *1073:CK 17.7143 
5 *648:14 *648:29 10.75 
6 *648:29 *648:33 5.67857 
7 *648:33 *648:39 13.0357 
8 *648:39 *1090:CK 10 
9 *648:39 *648:48 10.4286 
10 *648:48 *1089:CK 14.75 
11 *648:48 *1057:CK 13.6429 
12 *648:33 *1082:CK 5 
13 *648:29 *1212:A 5 
14 *648:12 *648:78 5 
15 *648:78 *1097:CK 5 
16 *648:78 *1074:CK 21.3571 
17 *648:8 *648:94 4.75 
18 *648:94 *1002:CK 5 
19 *648:94 *648:105 14.8214 
20 *648:105 *1001:CK 20.4643 
21 *648:105 *1065:CK 25 
*END

*D_NET *649 0.00449273
*CONN
*I *1010:CK I *D DFF_X1
*I *1098:CK I *D DFF_X1
*I *1042:CK I *D DFF_X1
*I *1034:CK I *D DFF_X1
*I *1066:CK I *D DFF_X1
*I *1018:CK I *D DFF_X1
*I *960:CK I *D DFFR_X1
*I *959:CK I *D DFFR_X1
*I *1049:CK I *D DFF_X1
*I *1058:CK I *D DFF_X1
*I *1041:CK I *D DFF_X1
*I *1213:A I *D INV_X1
*I *978:CK I *D DFF_X1
*I *1050:CK I *D DFF_X1
*I *1198:Z O *D BUF_X4
*CAP
1 *1010:CK 0
2 *1098:CK 6.93892e-05
3 *1042:CK 0.000102114
4 *1034:CK 7.74347e-06
5 *1066:CK 7.27903e-05
6 *1018:CK 0
7 *960:CK 0
8 *959:CK 1.24309e-05
9 *1049:CK 4.26781e-05
10 *1058:CK 6.32747e-06
11 *1041:CK 0.000177638
12 *1213:A 0
13 *978:CK 0.000240661
14 *1050:CK 5.98475e-05
15 *1198:Z 2.53354e-05
16 *649:141 0.000146085
17 *649:121 0.000191637
18 *649:115 0.000199625
19 *649:106 0.000169478
20 *649:97 0.000137358
21 *649:95 0.000125474
22 *649:89 0.000175881
23 *649:74 0.000162474
24 *649:44 0.000261821
25 *649:27 0.000341239
26 *649:25 4.65181e-05
27 *649:6 0.000108979
28 *792:S *978:CK 0
29 *793:A *978:CK 5.42208e-05
30 *793:A *649:27 1.2203e-05
31 *799:S *1041:CK 6.40608e-06
32 *800:S *1050:CK 0
33 *806:B *1041:CK 5.4364e-05
34 *806:S *1041:CK 1.1175e-05
35 *807:B *1042:CK 0
36 *807:S *649:121 0
37 *807:S *649:141 0
38 *814:A *649:121 3.36516e-07
39 *814:S *649:121 5.63653e-06
40 *821:B *978:CK 0
41 *821:S *978:CK 0.000104713
42 *828:A *1066:CK 2.30024e-06
43 *863:B *978:CK 0
44 *874:A2 *649:44 1.63647e-05
45 *875:A2 *649:121 5.10087e-06
46 *876:A2 *1041:CK 0
47 *884:A1 *649:44 8.7424e-06
48 *884:A3 *649:44 0
49 *888:A1 *649:25 9.22938e-05
50 *888:A1 *649:27 4.49583e-06
51 *888:A1 *649:44 5.95537e-07
52 *888:B2 *1058:CK 6.48216e-07
53 *888:B2 *649:44 4.92138e-05
54 *890:A2 *649:95 3.09143e-06
55 *890:A3 *649:89 1.10934e-05
56 *891:A1 *649:141 0
57 *897:B1 *649:106 0
58 *959:D *959:CK 2.52965e-06
59 *959:D *1098:CK 2.87087e-05
60 *959:D *649:106 5.52959e-06
61 *959:RN *1098:CK 4.99246e-05
62 *960:D *649:106 2.05797e-05
63 *978:D *978:CK 0
64 *1018:D *1066:CK 0
65 *1034:D *649:121 2.06764e-05
66 *1034:D *649:141 1.50276e-05
67 *1042:D *1042:CK 1.40196e-05
68 *1057:D *978:CK 1.32348e-05
69 *1057:D *649:44 0
70 *178:115 *959:CK 4.21607e-06
71 *178:115 *649:95 5.4364e-05
72 *178:115 *649:106 6.68941e-05
73 *178:115 *649:115 2.04866e-05
74 *181:109 *1050:CK 1.80766e-05
75 *181:109 *649:6 7.21602e-06
76 *184:104 *1098:CK 7.15953e-05
77 *184:121 *649:89 0
78 *184:127 *649:89 0
79 *184:140 *1041:CK 2.05605e-05
80 *184:140 *649:44 2.16072e-07
81 *190:165 *1058:CK 7.72537e-06
82 *199:33 *978:CK 0
83 *199:116 *978:CK 1.03094e-05
84 *199:116 *649:27 1.11258e-05
85 *203:35 *1041:CK 0
86 *209:31 *978:CK 0
87 *212:65 *978:CK 0
88 *226:82 *1050:CK 3.65422e-05
89 *226:98 *1049:CK 2.00179e-05
90 *226:98 *649:6 3.6114e-06
91 *234:51 *1049:CK 2.00179e-05
92 *234:51 *1050:CK 3.83757e-05
93 *234:51 *649:6 3.59789e-05
94 *246:10 *978:CK 0
95 *246:10 *1098:CK 0
96 *246:10 *649:27 0
97 *246:10 *649:89 8.16656e-05
98 *246:10 *649:95 0
99 *253:12 *1066:CK 1.13064e-05
100 *253:12 *649:121 2.00152e-05
101 *465:12 *978:CK 1.45945e-05
102 *466:10 *1050:CK 1.56073e-06
103 *466:10 *649:25 3.21609e-05
104 *466:10 *649:27 1.53357e-05
105 *474:8 *1066:CK 6.76378e-05
106 *497:14 *978:CK 1.25972e-05
107 *506:8 *1098:CK 0
108 *538:10 *1098:CK 6.33941e-05
109 *538:10 *649:95 4.24402e-05
110 *538:10 *649:106 0
111 *562:8 *1042:CK 6.03486e-06
112 *562:8 *649:121 9.13084e-06
113 *562:8 *649:141 1.20697e-05
114 *570:10 *1042:CK 0
115 *570:10 *649:141 0
116 *599:236 *649:106 0
117 *600:185 *1041:CK 3.78407e-05
118 *600:200 *1041:CK 5.84417e-05
119 *601:55 *1066:CK 0
120 *601:55 *649:121 0
121 *601:57 *649:95 7.7833e-06
122 *601:71 *1050:CK 5.46432e-05
123 *601:77 *978:CK 0
*RES
1 *1198:Z *649:6 8.75 
2 *649:6 *1050:CK 23.4643 
3 *649:6 *649:25 10 
4 *649:25 *649:27 2.96429 
5 *649:27 *978:CK 37.7857 
6 *649:27 *649:44 15 
7 *649:44 *1213:A 5 
8 *649:44 *1041:CK 26.4286 
9 *649:25 *1058:CK 10.75 
10 *1198:Z *649:74 5 
11 *649:74 *1049:CK 10.6786 
12 *649:74 *649:89 23.1429 
13 *649:89 *649:95 12.5357 
14 *649:95 *649:97 5 
15 *649:97 *959:CK 6.25 
16 *649:97 *649:106 15.75 
17 *649:106 *960:CK 5 
18 *649:106 *649:115 10.25 
19 *649:115 *649:121 18.1429 
20 *649:121 *1018:CK 5 
21 *649:121 *1066:CK 23.3929 
22 *649:115 *649:141 5 
23 *649:141 *1034:CK 11.25 
24 *649:141 *1042:CK 20.8571 
25 *649:95 *1098:CK 21.6071 
26 *649:89 *1010:CK 5 
*END
