*SPEF "ieee 1481-1999"
*DESIGN "alu"
*DATE "19:17:13 Thursday March 05, 2026"
*VENDOR "The OpenROAD Project"
*PROGRAM "OpenROAD"
*VERSION "26Q1-850-gafd49e5292"
*DESIGN_FLOW "NAME_SCOPE LOCAL" "PIN_CAP NONE"
*DIVIDER /
*DELIMITER :
*BUS_DELIMITER []
*T_UNIT 1 NS
*C_UNIT 1 PF
*R_UNIT 1 OHM
*L_UNIT 1 HENRY

*NAME_MAP
*1 A[0]
*2 A[1]
*3 A[2]
*4 A[3]
*5 A[4]
*6 A[5]
*7 A[6]
*8 A[7]
*9 B[0]
*10 B[1]
*11 B[2]
*12 B[3]
*13 B[4]
*14 B[5]
*15 B[6]
*16 B[7]
*17 _076_
*18 _077_
*19 _078_
*20 _079_
*21 _080_
*22 _081_
*23 _082_
*24 _083_
*25 _084_
*26 _085_
*27 _086_
*28 _087_
*29 _088_
*30 _089_
*31 _090_
*32 _091_
*33 _092_
*34 _093_
*35 _094_
*36 _095_
*37 _096_
*38 _097_
*39 _098_
*40 _099_
*41 _100_
*42 _101_
*43 _102_
*44 _103_
*45 _104_
*46 _105_
*47 _106_
*48 _107_
*49 _108_
*50 _109_
*51 _110_
*52 _111_
*53 _112_
*54 _113_
*55 _114_
*56 _115_
*57 _116_
*58 _117_
*59 _118_
*60 _119_
*61 _120_
*62 _121_
*63 _122_
*64 _123_
*65 _124_
*66 _125_
*67 _126_
*68 _127_
*69 _128_
*70 _129_
*71 _130_
*72 _131_
*73 _132_
*74 _133_
*75 _134_
*76 _135_
*77 _136_
*78 _137_
*79 _138_
*80 _139_
*81 _140_
*82 _141_
*83 _142_
*84 _143_
*85 _144_
*86 _145_
*87 _146_
*88 _147_
*89 _148_
*90 _149_
*91 _150_
*92 _151_
*93 _152_
*94 _153_
*95 _154_
*96 _155_
*97 _156_
*98 _157_
*99 _158_
*100 _159_
*101 _160_
*102 _161_
*103 _162_
*104 _163_
*105 _164_
*106 _165_
*107 _166_
*108 _167_
*109 _168_
*110 _169_
*111 _170_
*112 _171_
*113 _172_
*114 _173_
*115 _174_
*116 _175_
*117 _176_
*118 _177_
*119 _178_
*120 _179_
*121 _180_
*122 _181_
*123 _182_
*124 _183_
*125 _184_
*126 _185_
*127 _186_
*128 _187_
*129 _188_
*130 _189_
*131 _190_
*132 _191_
*133 _192_
*134 _193_
*135 _194_
*136 _195_
*137 _196_
*138 _197_
*139 _198_
*140 _199_
*141 _200_
*142 _201_
*143 _202_
*144 _203_
*145 _204_
*146 _205_
*147 _206_
*148 _207_
*149 _208_
*150 _209_
*151 _210_
*152 _211_
*153 _212_
*154 _213_
*155 _214_
*156 _215_
*157 _216_
*158 _217_
*159 _218_
*160 _219_
*161 _220_
*162 _221_
*163 _222_
*164 _223_
*165 _224_
*166 _225_
*167 _226_
*168 _227_
*169 _228_
*170 _229_
*171 _230_
*172 _231_
*173 _232_
*174 _233_
*175 _234_
*176 _235_
*177 _236_
*178 _237_
*179 _238_
*180 _239_
*181 _240_
*182 _241_
*183 _242_
*184 _243_
*185 _244_
*186 _245_
*187 _246_
*188 _247_
*189 _248_
*190 _249_
*191 _250_
*192 _251_
*193 _252_
*194 _253_
*195 _254_
*196 _255_
*197 _256_
*198 _257_
*199 _258_
*200 _259_
*201 _260_
*202 _261_
*203 _262_
*204 _263_
*205 _264_
*206 _265_
*207 _266_
*208 _267_
*209 _268_
*210 _269_
*211 _270_
*212 _271_
*213 _272_
*214 _273_
*215 _274_
*216 _275_
*217 _276_
*218 _277_
*219 _278_
*220 _279_
*221 _280_
*222 _281_
*223 _282_
*224 _283_
*225 _284_
*226 _285_
*227 _286_
*228 _287_
*229 _288_
*230 _289_
*231 _290_
*232 _291_
*233 _292_
*234 _293_
*235 _294_
*236 _295_
*237 _296_
*238 _297_
*239 _298_
*240 _299_
*241 _300_
*242 _301_
*243 _302_
*244 _303_
*245 _304_
*246 _305_
*247 _306_
*248 _307_
*249 _308_
*250 _309_
*251 _310_
*252 _311_
*253 _312_
*254 _313_
*255 _314_
*256 _315_
*257 _316_
*258 _320_
*259 _321_
*260 _322_
*261 _323_
*262 _324_
*263 _325_
*264 _326_
*265 _327_
*266 _350_
*267 net79
*268 net80
*269 net81
*270 net82
*271 net83
*272 net84
*273 net85
*274 net86
*275 net87
*276 net88
*277 net89
*278 net90
*279 net91
*280 net92
*281 net93
*282 net94
*283 net95
*284 net96
*285 net97
*286 net98
*287 net99
*288 net100
*289 net101
*290 net102
*292 net9
*293 net10
*294 net11
*295 net12
*296 net13
*297 net14
*298 net15
*299 net16
*300 net17
*301 net18
*302 net19
*303 net20
*304 net21
*305 net22
*306 net23
*307 net24
*308 net25
*309 net26
*310 net27
*311 net28
*312 net29
*313 net30
*314 net31
*315 net32
*316 net33
*317 net34
*318 net35
*319 net36
*320 net37
*321 net38
*322 net39
*323 net40
*324 net41
*325 net42
*326 net43
*327 net6
*328 net5
*329 net45
*330 net47
*331 net49
*332 net51
*333 net53
*334 net55
*335 net57
*336 net59
*337 net60
*338 net8
*339 net7
*340 net62
*341 net64
*342 net66
*343 net68
*344 net70
*345 net72
*346 net74
*347 net77
*348 net78
*349 opcode[0]
*350 opcode[1]
*351 opcode[2]
*354 net1
*355 net2
*356 net3
*357 net4
*358 net
*359 net44
*360 net46
*361 net48
*362 net50
*363 net52
*364 net54
*365 net56
*366 net58
*367 net61
*368 net63
*369 net65
*370 net67
*371 net69
*372 net71
*373 net73
*374 net75
*375 net76
*376 _537_
*377 _538_
*378 _539_
*379 _540_
*380 _541_
*381 _542_
*382 _543_
*383 _544_
*384 _545_
*385 _546_
*386 _547_
*387 _548_
*388 _549_
*389 _550_
*390 _551_
*391 _552_
*392 _553_
*393 _554_
*394 _555_
*395 _556_
*396 _557_
*397 _558_
*398 _559_
*399 _560_
*400 _561_
*401 _562_
*402 _563_
*403 _564_
*404 _565_
*405 _566_
*406 _567_
*407 _568_
*408 _569_
*409 _570_
*410 _571_
*411 _572_
*412 _573_
*413 _574_
*414 _575_
*415 _576_
*416 _577_
*417 _578_
*418 _579_
*419 _580_
*420 _581_
*421 _582_
*422 _583_
*423 _584_
*424 _585_
*425 _586_
*426 _587_
*427 _588_
*428 _589_
*429 _590_
*430 _591_
*431 _592_
*432 _593_
*433 _594_
*434 _595_
*435 _596_
*436 _597_
*437 _598_
*438 _599_
*439 _600_
*440 _601_
*441 _602_
*442 _603_
*443 _604_
*444 _605_
*445 _606_
*446 _607_
*447 _608_
*448 _609_
*449 _610_
*450 _611_
*451 _612_
*452 _613_
*453 _614_
*454 _615_
*455 _616_
*456 _617_
*457 _618_
*458 _619_
*459 _620_
*460 _621_
*461 _622_
*462 _623_
*463 _624_
*464 _625_
*465 _626_
*466 _627_
*467 _628_
*468 _629_
*469 _630_
*470 _631_
*471 _632_
*472 _633_
*473 _634_
*474 _635_
*475 _636_
*476 _637_
*477 _638_
*478 _639_
*479 _640_
*480 _641_
*481 _642_
*482 _643_
*483 _644_
*484 _645_
*485 _646_
*486 _647_
*487 _648_
*488 _649_
*489 _650_
*490 _651_
*491 _652_
*492 _653_
*493 _654_
*494 _655_
*495 _656_
*496 _657_
*497 _658_
*498 _659_
*499 _660_
*500 _661_
*501 _662_
*502 _663_
*503 _664_
*504 _665_
*505 _666_
*506 _667_
*507 _668_
*508 _669_
*509 _670_
*510 _671_
*511 _672_
*512 _673_
*513 _674_
*514 _675_
*515 _676_
*516 _677_
*517 _678_
*518 _679_
*519 _680_
*520 _681_
*521 _682_
*522 _683_
*523 _684_
*524 _685_
*525 _686_
*526 _687_
*527 _688_
*528 _689_
*529 _690_
*530 _691_
*531 _692_
*532 _693_
*533 _694_
*534 _695_
*535 _696_
*536 _697_
*537 _698_
*538 _699_
*539 _700_
*540 _701_
*541 _702_
*542 _703_
*543 _704_
*544 _705_
*545 _706_
*546 _707_
*547 _708_
*548 _709_
*549 _710_
*550 _711_
*551 _712_
*552 _713_
*553 _714_
*554 _715_
*555 _716_
*556 _717_
*557 _718_
*558 _719_
*559 _720_
*560 _721_
*561 _722_
*562 _723_
*563 _724_
*564 _725_
*565 _726_
*566 _727_
*567 _728_
*568 _729_
*569 _730_
*570 _731_
*571 _732_
*572 _733_
*573 _734_
*574 _735_
*575 _736_
*576 _737_
*577 _738_
*578 _739_
*579 _740_
*580 _741_
*581 _742_
*582 _743_
*583 _744_
*584 _745_
*585 _746_
*586 _747_
*587 _748_
*588 _749_
*589 _750_
*590 _751_
*591 _752_
*592 _753_
*593 _754_
*594 _755_
*595 _756_
*596 _757_
*597 _758_
*598 _759_
*599 _760_
*600 _761_
*601 _762_
*602 _763_
*603 _764_
*604 _765_
*605 _766_
*606 _767_
*607 _768_
*608 _769_
*609 _770_
*610 _771_
*611 _772_
*612 _773_
*613 _774_
*614 _775_
*615 _776_
*616 _777_
*617 _778_
*618 _779_
*619 _780_
*620 _781_
*621 _782_
*622 _783_
*623 _784_
*624 _785_
*625 _786_
*626 _580__80
*627 _547__81
*628 _551__82
*629 _573__83
*630 _566__84
*631 _561__85
*632 _556__86
*633 _721__87
*634 _768__88
*635 _560__89
*636 _588__90
*637 _639__91
*638 _653__92
*639 _654__93
*640 _659__94
*641 _644__95
*642 _645__96
*643 _648__97
*644 _650__98
*645 _762__99
*646 _773__100
*647 _774__101
*648 _776__102
*649 _778__103
*650 FILLER_0_1
*651 _758__6
*652 _769__7
*653 _768__8
*654 _742__9
*655 _629__10
*656 _592__11
*657 _597__12
*658 _618__13
*659 _612__14
*660 _606__15
*661 _601__16
*662 _723__17
*663 _668__18
*664 _676__19
*665 _688__20
*666 _696__21
*667 _708__22
*668 _719__23
*669 _729__24
*670 _727__25
*671 _758__26
*672 _545__27
*673 _587__28
*674 _586__29
*675 _638__30
*676 _640__31
*677 _652__32
*678 _657__33
*679 _658__34
*680 _643__35
*681 _755__36
*682 _753__37
*683 _649__38
*684 _764__39
*685 _763__40
*686 _772__41
*687 _546__42
*688 _777__43
*689 _544__44
*690 _609__46
*691 _614__48
*692 _621__50
*693 _599__52
*694 _595__54
*695 _632__56
*696 _744__58
*697 _759__60
*698 _558__61
*699 _563__63
*700 _569__65
*701 _575__67
*702 _554__69
*703 _549__71
*704 _583__73
*705 _734__75
*706 _769__78
*707 _731__79
*708 PHY_EDGE_ROW_0_Right_0
*709 PHY_EDGE_ROW_1_Right_1
*710 PHY_EDGE_ROW_2_Right_2
*711 PHY_EDGE_ROW_3_Right_3
*712 PHY_EDGE_ROW_4_Right_4
*713 PHY_EDGE_ROW_5_Right_5
*714 PHY_EDGE_ROW_6_Right_6
*715 PHY_EDGE_ROW_7_Right_7
*716 PHY_EDGE_ROW_8_Right_8
*717 PHY_EDGE_ROW_9_Right_9
*718 PHY_EDGE_ROW_10_Right_10
*719 PHY_EDGE_ROW_11_Right_11
*720 PHY_EDGE_ROW_12_Right_12
*721 PHY_EDGE_ROW_13_Right_13
*722 PHY_EDGE_ROW_14_Right_14
*723 PHY_EDGE_ROW_15_Right_15
*724 PHY_EDGE_ROW_16_Right_16
*725 PHY_EDGE_ROW_17_Right_17
*726 PHY_EDGE_ROW_18_Right_18
*727 PHY_EDGE_ROW_19_Right_19
*728 PHY_EDGE_ROW_20_Right_20
*729 PHY_EDGE_ROW_21_Right_21
*730 PHY_EDGE_ROW_22_Right_22
*731 PHY_EDGE_ROW_23_Right_23
*732 PHY_EDGE_ROW_24_Right_24
*733 PHY_EDGE_ROW_25_Right_25
*734 PHY_EDGE_ROW_26_Right_26
*735 PHY_EDGE_ROW_27_Right_27
*736 PHY_EDGE_ROW_28_Right_28
*737 PHY_EDGE_ROW_29_Right_29
*738 PHY_EDGE_ROW_30_Right_30
*739 PHY_EDGE_ROW_31_Right_31
*740 PHY_EDGE_ROW_32_Right_32
*741 PHY_EDGE_ROW_33_Right_33
*742 PHY_EDGE_ROW_34_Right_34
*743 PHY_EDGE_ROW_35_Right_35
*744 PHY_EDGE_ROW_36_Right_36
*745 PHY_EDGE_ROW_37_Right_37
*746 PHY_EDGE_ROW_38_Right_38
*747 PHY_EDGE_ROW_39_Right_39
*748 PHY_EDGE_ROW_40_Right_40
*749 PHY_EDGE_ROW_41_Right_41
*750 PHY_EDGE_ROW_42_Right_42
*751 PHY_EDGE_ROW_43_Right_43
*752 PHY_EDGE_ROW_44_Right_44
*753 PHY_EDGE_ROW_45_Right_45
*754 PHY_EDGE_ROW_46_Right_46
*755 PHY_EDGE_ROW_47_Right_47
*756 PHY_EDGE_ROW_48_Right_48
*757 PHY_EDGE_ROW_49_Right_49
*758 PHY_EDGE_ROW_50_Right_50
*759 PHY_EDGE_ROW_51_Right_51
*760 PHY_EDGE_ROW_52_Right_52
*761 PHY_EDGE_ROW_53_Right_53
*762 PHY_EDGE_ROW_54_Right_54
*763 PHY_EDGE_ROW_55_Right_55
*764 PHY_EDGE_ROW_56_Right_56
*765 PHY_EDGE_ROW_57_Right_57
*766 PHY_EDGE_ROW_58_Right_58
*767 PHY_EDGE_ROW_59_Right_59
*768 PHY_EDGE_ROW_60_Right_60
*769 PHY_EDGE_ROW_61_Right_61
*770 PHY_EDGE_ROW_62_Right_62
*771 PHY_EDGE_ROW_63_Right_63
*772 PHY_EDGE_ROW_64_Right_64
*773 PHY_EDGE_ROW_65_Right_65
*774 PHY_EDGE_ROW_66_Right_66
*775 PHY_EDGE_ROW_67_Right_67
*776 PHY_EDGE_ROW_68_Right_68
*777 PHY_EDGE_ROW_69_Right_69
*778 PHY_EDGE_ROW_70_Right_70
*779 PHY_EDGE_ROW_71_Right_71
*780 PHY_EDGE_ROW_72_Right_72
*781 PHY_EDGE_ROW_73_Right_73
*782 PHY_EDGE_ROW_74_Right_74
*783 PHY_EDGE_ROW_75_Right_75
*784 PHY_EDGE_ROW_76_Right_76
*785 PHY_EDGE_ROW_77_Right_77
*786 PHY_EDGE_ROW_78_Right_78
*787 PHY_EDGE_ROW_79_Right_79
*788 PHY_EDGE_ROW_80_Right_80
*789 PHY_EDGE_ROW_81_Right_81
*790 PHY_EDGE_ROW_82_Right_82
*791 PHY_EDGE_ROW_83_Right_83
*792 PHY_EDGE_ROW_84_Right_84
*793 PHY_EDGE_ROW_85_Right_85
*794 PHY_EDGE_ROW_86_Right_86
*795 PHY_EDGE_ROW_87_Right_87
*796 PHY_EDGE_ROW_88_Right_88
*797 PHY_EDGE_ROW_89_Right_89
*798 PHY_EDGE_ROW_90_Right_90
*799 PHY_EDGE_ROW_91_Right_91
*800 PHY_EDGE_ROW_92_Right_92
*801 PHY_EDGE_ROW_93_Right_93
*802 PHY_EDGE_ROW_94_Right_94
*803 PHY_EDGE_ROW_95_Right_95
*804 PHY_EDGE_ROW_96_Right_96
*805 PHY_EDGE_ROW_97_Right_97
*806 PHY_EDGE_ROW_98_Right_98
*807 PHY_EDGE_ROW_99_Right_99
*808 PHY_EDGE_ROW_100_Right_100
*809 PHY_EDGE_ROW_101_Right_101
*810 PHY_EDGE_ROW_102_Right_102
*811 PHY_EDGE_ROW_103_Right_103
*812 PHY_EDGE_ROW_104_Right_104
*813 PHY_EDGE_ROW_105_Right_105
*814 PHY_EDGE_ROW_106_Right_106
*815 PHY_EDGE_ROW_107_Right_107
*816 PHY_EDGE_ROW_108_Right_108
*817 PHY_EDGE_ROW_109_Right_109
*818 PHY_EDGE_ROW_110_Right_110
*819 PHY_EDGE_ROW_111_Right_111
*820 PHY_EDGE_ROW_112_Right_112
*821 PHY_EDGE_ROW_0_Left_113
*822 PHY_EDGE_ROW_1_Left_114
*823 PHY_EDGE_ROW_2_Left_115
*824 PHY_EDGE_ROW_3_Left_116
*825 PHY_EDGE_ROW_4_Left_117
*826 PHY_EDGE_ROW_5_Left_118
*827 PHY_EDGE_ROW_6_Left_119
*828 PHY_EDGE_ROW_7_Left_120
*829 PHY_EDGE_ROW_8_Left_121
*830 PHY_EDGE_ROW_9_Left_122
*831 PHY_EDGE_ROW_10_Left_123
*832 PHY_EDGE_ROW_11_Left_124
*833 PHY_EDGE_ROW_12_Left_125
*834 PHY_EDGE_ROW_13_Left_126
*835 PHY_EDGE_ROW_14_Left_127
*836 PHY_EDGE_ROW_15_Left_128
*837 PHY_EDGE_ROW_16_Left_129
*838 PHY_EDGE_ROW_17_Left_130
*839 PHY_EDGE_ROW_18_Left_131
*840 PHY_EDGE_ROW_19_Left_132
*841 PHY_EDGE_ROW_20_Left_133
*842 PHY_EDGE_ROW_21_Left_134
*843 PHY_EDGE_ROW_22_Left_135
*844 PHY_EDGE_ROW_23_Left_136
*845 PHY_EDGE_ROW_24_Left_137
*846 PHY_EDGE_ROW_25_Left_138
*847 PHY_EDGE_ROW_26_Left_139
*848 PHY_EDGE_ROW_27_Left_140
*849 PHY_EDGE_ROW_28_Left_141
*850 PHY_EDGE_ROW_29_Left_142
*851 PHY_EDGE_ROW_30_Left_143
*852 PHY_EDGE_ROW_31_Left_144
*853 PHY_EDGE_ROW_32_Left_145
*854 PHY_EDGE_ROW_33_Left_146
*855 PHY_EDGE_ROW_34_Left_147
*856 PHY_EDGE_ROW_35_Left_148
*857 PHY_EDGE_ROW_36_Left_149
*858 PHY_EDGE_ROW_37_Left_150
*859 PHY_EDGE_ROW_38_Left_151
*860 PHY_EDGE_ROW_39_Left_152
*861 PHY_EDGE_ROW_40_Left_153
*862 PHY_EDGE_ROW_41_Left_154
*863 PHY_EDGE_ROW_42_Left_155
*864 PHY_EDGE_ROW_43_Left_156
*865 PHY_EDGE_ROW_44_Left_157
*866 PHY_EDGE_ROW_45_Left_158
*867 PHY_EDGE_ROW_46_Left_159
*868 PHY_EDGE_ROW_47_Left_160
*869 PHY_EDGE_ROW_48_Left_161
*870 PHY_EDGE_ROW_49_Left_162
*871 PHY_EDGE_ROW_50_Left_163
*872 PHY_EDGE_ROW_51_Left_164
*873 PHY_EDGE_ROW_52_Left_165
*874 PHY_EDGE_ROW_53_Left_166
*875 PHY_EDGE_ROW_54_Left_167
*876 PHY_EDGE_ROW_55_Left_168
*877 PHY_EDGE_ROW_56_Left_169
*878 PHY_EDGE_ROW_57_Left_170
*879 PHY_EDGE_ROW_58_Left_171
*880 PHY_EDGE_ROW_59_Left_172
*881 PHY_EDGE_ROW_60_Left_173
*882 PHY_EDGE_ROW_61_Left_174
*883 PHY_EDGE_ROW_62_Left_175
*884 PHY_EDGE_ROW_63_Left_176
*885 PHY_EDGE_ROW_64_Left_177
*886 PHY_EDGE_ROW_65_Left_178
*887 PHY_EDGE_ROW_66_Left_179
*888 PHY_EDGE_ROW_67_Left_180
*889 PHY_EDGE_ROW_68_Left_181
*890 PHY_EDGE_ROW_69_Left_182
*891 PHY_EDGE_ROW_70_Left_183
*892 PHY_EDGE_ROW_71_Left_184
*893 PHY_EDGE_ROW_72_Left_185
*894 PHY_EDGE_ROW_73_Left_186
*895 PHY_EDGE_ROW_74_Left_187
*896 PHY_EDGE_ROW_75_Left_188
*897 PHY_EDGE_ROW_76_Left_189
*898 PHY_EDGE_ROW_77_Left_190
*899 PHY_EDGE_ROW_78_Left_191
*900 PHY_EDGE_ROW_79_Left_192
*901 PHY_EDGE_ROW_80_Left_193
*902 PHY_EDGE_ROW_81_Left_194
*903 PHY_EDGE_ROW_82_Left_195
*904 PHY_EDGE_ROW_83_Left_196
*905 PHY_EDGE_ROW_84_Left_197
*906 PHY_EDGE_ROW_85_Left_198
*907 PHY_EDGE_ROW_86_Left_199
*908 PHY_EDGE_ROW_87_Left_200
*909 PHY_EDGE_ROW_88_Left_201
*910 PHY_EDGE_ROW_89_Left_202
*911 PHY_EDGE_ROW_90_Left_203
*912 PHY_EDGE_ROW_91_Left_204
*913 PHY_EDGE_ROW_92_Left_205
*914 PHY_EDGE_ROW_93_Left_206
*915 PHY_EDGE_ROW_94_Left_207
*916 PHY_EDGE_ROW_95_Left_208
*917 PHY_EDGE_ROW_96_Left_209
*918 PHY_EDGE_ROW_97_Left_210
*919 PHY_EDGE_ROW_98_Left_211
*920 PHY_EDGE_ROW_99_Left_212
*921 PHY_EDGE_ROW_100_Left_213
*922 PHY_EDGE_ROW_101_Left_214
*923 PHY_EDGE_ROW_102_Left_215
*924 PHY_EDGE_ROW_103_Left_216
*925 PHY_EDGE_ROW_104_Left_217
*926 PHY_EDGE_ROW_105_Left_218
*927 PHY_EDGE_ROW_106_Left_219
*928 PHY_EDGE_ROW_107_Left_220
*929 PHY_EDGE_ROW_108_Left_221
*930 PHY_EDGE_ROW_109_Left_222
*931 PHY_EDGE_ROW_110_Left_223
*932 PHY_EDGE_ROW_111_Left_224
*933 PHY_EDGE_ROW_112_Left_225
*934 TAP_TAPCELL_ROW_0_226
*935 TAP_TAPCELL_ROW_2_227
*936 TAP_TAPCELL_ROW_4_228
*937 TAP_TAPCELL_ROW_6_229
*938 TAP_TAPCELL_ROW_8_230
*939 TAP_TAPCELL_ROW_10_231
*940 TAP_TAPCELL_ROW_12_232
*941 TAP_TAPCELL_ROW_14_233
*942 TAP_TAPCELL_ROW_16_234
*943 TAP_TAPCELL_ROW_18_235
*944 TAP_TAPCELL_ROW_20_236
*945 TAP_TAPCELL_ROW_22_237
*946 TAP_TAPCELL_ROW_24_238
*947 TAP_TAPCELL_ROW_26_239
*948 TAP_TAPCELL_ROW_28_240
*949 TAP_TAPCELL_ROW_30_241
*950 TAP_TAPCELL_ROW_32_242
*951 TAP_TAPCELL_ROW_34_243
*952 TAP_TAPCELL_ROW_36_244
*953 TAP_TAPCELL_ROW_38_245
*954 TAP_TAPCELL_ROW_40_246
*955 TAP_TAPCELL_ROW_42_247
*956 TAP_TAPCELL_ROW_44_248
*957 TAP_TAPCELL_ROW_46_249
*958 TAP_TAPCELL_ROW_48_250
*959 TAP_TAPCELL_ROW_50_251
*960 TAP_TAPCELL_ROW_52_252
*961 TAP_TAPCELL_ROW_54_253
*962 TAP_TAPCELL_ROW_56_254
*963 TAP_TAPCELL_ROW_58_255
*964 TAP_TAPCELL_ROW_60_256
*965 TAP_TAPCELL_ROW_62_257
*966 TAP_TAPCELL_ROW_64_258
*967 TAP_TAPCELL_ROW_66_259
*968 TAP_TAPCELL_ROW_68_260
*969 TAP_TAPCELL_ROW_70_261
*970 TAP_TAPCELL_ROW_72_262
*971 TAP_TAPCELL_ROW_74_263
*972 TAP_TAPCELL_ROW_76_264
*973 TAP_TAPCELL_ROW_78_265
*974 TAP_TAPCELL_ROW_80_266
*975 TAP_TAPCELL_ROW_82_267
*976 TAP_TAPCELL_ROW_84_268
*977 TAP_TAPCELL_ROW_86_269
*978 TAP_TAPCELL_ROW_88_270
*979 TAP_TAPCELL_ROW_90_271
*980 TAP_TAPCELL_ROW_92_272
*981 TAP_TAPCELL_ROW_94_273
*982 TAP_TAPCELL_ROW_96_274
*983 TAP_TAPCELL_ROW_98_275
*984 TAP_TAPCELL_ROW_100_276
*985 TAP_TAPCELL_ROW_102_277
*986 TAP_TAPCELL_ROW_104_278
*987 TAP_TAPCELL_ROW_106_279
*988 TAP_TAPCELL_ROW_108_280
*989 TAP_TAPCELL_ROW_110_281
*990 TAP_TAPCELL_ROW_112_282
*991 max_cap1
*992 max_cap2
*993 max_cap3
*994 max_cap4
*995 _759__5
*996 _722__45
*997 _611__47
*998 _615__49
*999 _624__51
*1000 _600__53
*1001 _628__55
*1002 _740__57
*1003 _745__59
*1004 _559__62
*1005 _564__64
*1006 _570__66
*1007 _576__68
*1008 _555__70
*1009 _550__72
*1010 _736__74
*1011 _735__76
*1012 _766__77
*1013 FILLER_0_33
*1014 FILLER_0_65
*1015 FILLER_0_97
*1016 FILLER_0_129
*1017 FILLER_0_161
*1018 FILLER_0_193
*1019 FILLER_0_225
*1020 FILLER_0_257
*1021 FILLER_0_289
*1022 FILLER_0_321
*1023 FILLER_0_353
*1024 FILLER_0_385
*1025 FILLER_0_417
*1026 FILLER_0_449
*1027 FILLER_0_481
*1028 FILLER_0_513
*1029 FILLER_0_545
*1030 FILLER_0_577
*1031 FILLER_0_609
*1032 FILLER_0_625
*1033 FILLER_0_629
*1034 FILLER_0_632
*1035 FILLER_0_664
*1036 FILLER_0_696
*1037 FILLER_0_728
*1038 FILLER_0_760
*1039 FILLER_0_792
*1040 FILLER_0_824
*1041 FILLER_1_1
*1042 FILLER_1_33
*1043 FILLER_1_65
*1044 FILLER_1_97
*1045 FILLER_1_129
*1046 FILLER_1_161
*1047 FILLER_1_193
*1048 FILLER_1_225
*1049 FILLER_1_257
*1050 FILLER_1_289
*1051 FILLER_1_321
*1052 FILLER_1_353
*1053 FILLER_1_385
*1054 FILLER_1_417
*1055 FILLER_1_449
*1056 FILLER_1_481
*1057 FILLER_1_513
*1058 FILLER_1_545
*1059 FILLER_1_577
*1060 FILLER_1_609
*1061 FILLER_1_641
*1062 FILLER_1_673
*1063 FILLER_1_705
*1064 FILLER_1_737
*1065 FILLER_1_769
*1066 FILLER_1_801
*1067 FILLER_1_833
*1068 FILLER_1_837
*1069 FILLER_1_839
*1070 FILLER_2_1
*1071 FILLER_2_33
*1072 FILLER_2_65
*1073 FILLER_2_97
*1074 FILLER_2_129
*1075 FILLER_2_161
*1076 FILLER_2_193
*1077 FILLER_2_225
*1078 FILLER_2_257
*1079 FILLER_2_289
*1080 FILLER_2_321
*1081 FILLER_2_353
*1082 FILLER_2_385
*1083 FILLER_2_417
*1084 FILLER_2_449
*1085 FILLER_2_481
*1086 FILLER_2_513
*1087 FILLER_2_545
*1088 FILLER_2_577
*1089 FILLER_2_609
*1090 FILLER_2_625
*1091 FILLER_2_629
*1092 FILLER_2_632
*1093 FILLER_2_664
*1094 FILLER_2_696
*1095 FILLER_2_728
*1096 FILLER_2_760
*1097 FILLER_2_792
*1098 FILLER_2_824
*1099 FILLER_3_1
*1100 FILLER_3_33
*1101 FILLER_3_65
*1102 FILLER_3_97
*1103 FILLER_3_129
*1104 FILLER_3_161
*1105 FILLER_3_193
*1106 FILLER_3_225
*1107 FILLER_3_257
*1108 FILLER_3_289
*1109 FILLER_3_321
*1110 FILLER_3_353
*1111 FILLER_3_385
*1112 FILLER_3_417
*1113 FILLER_3_449
*1114 FILLER_3_481
*1115 FILLER_3_513
*1116 FILLER_3_545
*1117 FILLER_3_577
*1118 FILLER_3_609
*1119 FILLER_3_641
*1120 FILLER_3_673
*1121 FILLER_3_705
*1122 FILLER_3_737
*1123 FILLER_3_769
*1124 FILLER_3_801
*1125 FILLER_3_833
*1126 FILLER_3_837
*1127 FILLER_3_839
*1128 FILLER_4_1
*1129 FILLER_4_33
*1130 FILLER_4_65
*1131 FILLER_4_97
*1132 FILLER_4_129
*1133 FILLER_4_161
*1134 FILLER_4_193
*1135 FILLER_4_225
*1136 FILLER_4_257
*1137 FILLER_4_289
*1138 FILLER_4_321
*1139 FILLER_4_353
*1140 FILLER_4_385
*1141 FILLER_4_417
*1142 FILLER_4_449
*1143 FILLER_4_481
*1144 FILLER_4_513
*1145 FILLER_4_545
*1146 FILLER_4_577
*1147 FILLER_4_609
*1148 FILLER_4_625
*1149 FILLER_4_629
*1150 FILLER_4_632
*1151 FILLER_4_664
*1152 FILLER_4_696
*1153 FILLER_4_728
*1154 FILLER_4_760
*1155 FILLER_4_792
*1156 FILLER_4_824
*1157 FILLER_5_1
*1158 FILLER_5_33
*1159 FILLER_5_65
*1160 FILLER_5_97
*1161 FILLER_5_129
*1162 FILLER_5_161
*1163 FILLER_5_193
*1164 FILLER_5_225
*1165 FILLER_5_257
*1166 FILLER_5_289
*1167 FILLER_5_321
*1168 FILLER_5_353
*1169 FILLER_5_385
*1170 FILLER_5_417
*1171 FILLER_5_449
*1172 FILLER_5_481
*1173 FILLER_5_513
*1174 FILLER_5_545
*1175 FILLER_5_577
*1176 FILLER_5_609
*1177 FILLER_5_641
*1178 FILLER_5_673
*1179 FILLER_5_705
*1180 FILLER_5_737
*1181 FILLER_5_769
*1182 FILLER_5_801
*1183 FILLER_5_833
*1184 FILLER_5_837
*1185 FILLER_5_839
*1186 FILLER_6_1
*1187 FILLER_6_33
*1188 FILLER_6_65
*1189 FILLER_6_97
*1190 FILLER_6_129
*1191 FILLER_6_161
*1192 FILLER_6_193
*1193 FILLER_6_225
*1194 FILLER_6_257
*1195 FILLER_6_289
*1196 FILLER_6_321
*1197 FILLER_6_353
*1198 FILLER_6_385
*1199 FILLER_6_417
*1200 FILLER_6_449
*1201 FILLER_6_481
*1202 FILLER_6_513
*1203 FILLER_6_545
*1204 FILLER_6_577
*1205 FILLER_6_609
*1206 FILLER_6_625
*1207 FILLER_6_629
*1208 FILLER_6_632
*1209 FILLER_6_664
*1210 FILLER_6_696
*1211 FILLER_6_728
*1212 FILLER_6_760
*1213 FILLER_6_792
*1214 FILLER_6_824
*1215 FILLER_7_1
*1216 FILLER_7_33
*1217 FILLER_7_65
*1218 FILLER_7_97
*1219 FILLER_7_129
*1220 FILLER_7_161
*1221 FILLER_7_193
*1222 FILLER_7_225
*1223 FILLER_7_257
*1224 FILLER_7_289
*1225 FILLER_7_321
*1226 FILLER_7_353
*1227 FILLER_7_385
*1228 FILLER_7_417
*1229 FILLER_7_449
*1230 FILLER_7_481
*1231 FILLER_7_513
*1232 FILLER_7_545
*1233 FILLER_7_577
*1234 FILLER_7_609
*1235 FILLER_7_641
*1236 FILLER_7_673
*1237 FILLER_7_705
*1238 FILLER_7_737
*1239 FILLER_7_769
*1240 FILLER_7_801
*1241 FILLER_7_833
*1242 FILLER_7_837
*1243 FILLER_7_839
*1244 FILLER_8_1
*1245 FILLER_8_33
*1246 FILLER_8_65
*1247 FILLER_8_97
*1248 FILLER_8_129
*1249 FILLER_8_161
*1250 FILLER_8_193
*1251 FILLER_8_225
*1252 FILLER_8_257
*1253 FILLER_8_289
*1254 FILLER_8_321
*1255 FILLER_8_353
*1256 FILLER_8_385
*1257 FILLER_8_417
*1258 FILLER_8_449
*1259 FILLER_8_481
*1260 FILLER_8_513
*1261 FILLER_8_545
*1262 FILLER_8_577
*1263 FILLER_8_609
*1264 FILLER_8_625
*1265 FILLER_8_629
*1266 FILLER_8_632
*1267 FILLER_8_664
*1268 FILLER_8_696
*1269 FILLER_8_728
*1270 FILLER_8_760
*1271 FILLER_8_792
*1272 FILLER_8_824
*1273 FILLER_9_1
*1274 FILLER_9_33
*1275 FILLER_9_65
*1276 FILLER_9_97
*1277 FILLER_9_129
*1278 FILLER_9_161
*1279 FILLER_9_193
*1280 FILLER_9_225
*1281 FILLER_9_257
*1282 FILLER_9_289
*1283 FILLER_9_321
*1284 FILLER_9_353
*1285 FILLER_9_385
*1286 FILLER_9_417
*1287 FILLER_9_449
*1288 FILLER_9_481
*1289 FILLER_9_513
*1290 FILLER_9_545
*1291 FILLER_9_577
*1292 FILLER_9_609
*1293 FILLER_9_641
*1294 FILLER_9_673
*1295 FILLER_9_705
*1296 FILLER_9_737
*1297 FILLER_9_769
*1298 FILLER_9_801
*1299 FILLER_9_833
*1300 FILLER_9_837
*1301 FILLER_9_839
*1302 FILLER_10_1
*1303 FILLER_10_33
*1304 FILLER_10_65
*1305 FILLER_10_97
*1306 FILLER_10_129
*1307 FILLER_10_161
*1308 FILLER_10_193
*1309 FILLER_10_225
*1310 FILLER_10_257
*1311 FILLER_10_289
*1312 FILLER_10_321
*1313 FILLER_10_353
*1314 FILLER_10_385
*1315 FILLER_10_417
*1316 FILLER_10_449
*1317 FILLER_10_481
*1318 FILLER_10_513
*1319 FILLER_10_545
*1320 FILLER_10_577
*1321 FILLER_10_609
*1322 FILLER_10_625
*1323 FILLER_10_629
*1324 FILLER_10_632
*1325 FILLER_10_664
*1326 FILLER_10_696
*1327 FILLER_10_728
*1328 FILLER_10_760
*1329 FILLER_10_792
*1330 FILLER_10_824
*1331 FILLER_11_1
*1332 FILLER_11_33
*1333 FILLER_11_65
*1334 FILLER_11_97
*1335 FILLER_11_129
*1336 FILLER_11_161
*1337 FILLER_11_193
*1338 FILLER_11_225
*1339 FILLER_11_257
*1340 FILLER_11_289
*1341 FILLER_11_321
*1342 FILLER_11_353
*1343 FILLER_11_385
*1344 FILLER_11_417
*1345 FILLER_11_449
*1346 FILLER_11_481
*1347 FILLER_11_513
*1348 FILLER_11_545
*1349 FILLER_11_577
*1350 FILLER_11_609
*1351 FILLER_11_641
*1352 FILLER_11_673
*1353 FILLER_11_705
*1354 FILLER_11_737
*1355 FILLER_11_769
*1356 FILLER_11_801
*1357 FILLER_11_833
*1358 FILLER_11_837
*1359 FILLER_11_839
*1360 FILLER_12_1
*1361 FILLER_12_33
*1362 FILLER_12_65
*1363 FILLER_12_97
*1364 FILLER_12_129
*1365 FILLER_12_161
*1366 FILLER_12_193
*1367 FILLER_12_225
*1368 FILLER_12_257
*1369 FILLER_12_289
*1370 FILLER_12_321
*1371 FILLER_12_353
*1372 FILLER_12_385
*1373 FILLER_12_417
*1374 FILLER_12_449
*1375 FILLER_12_481
*1376 FILLER_12_513
*1377 FILLER_12_545
*1378 FILLER_12_577
*1379 FILLER_12_609
*1380 FILLER_12_625
*1381 FILLER_12_629
*1382 FILLER_12_632
*1383 FILLER_12_664
*1384 FILLER_12_696
*1385 FILLER_12_728
*1386 FILLER_12_760
*1387 FILLER_12_792
*1388 FILLER_12_824
*1389 FILLER_13_1
*1390 FILLER_13_33
*1391 FILLER_13_65
*1392 FILLER_13_97
*1393 FILLER_13_129
*1394 FILLER_13_161
*1395 FILLER_13_193
*1396 FILLER_13_225
*1397 FILLER_13_257
*1398 FILLER_13_289
*1399 FILLER_13_321
*1400 FILLER_13_353
*1401 FILLER_13_385
*1402 FILLER_13_417
*1403 FILLER_13_449
*1404 FILLER_13_481
*1405 FILLER_13_513
*1406 FILLER_13_545
*1407 FILLER_13_577
*1408 FILLER_13_609
*1409 FILLER_13_641
*1410 FILLER_13_673
*1411 FILLER_13_705
*1412 FILLER_13_737
*1413 FILLER_13_769
*1414 FILLER_13_801
*1415 FILLER_13_833
*1416 FILLER_13_837
*1417 FILLER_13_839
*1418 FILLER_14_1
*1419 FILLER_14_33
*1420 FILLER_14_65
*1421 FILLER_14_97
*1422 FILLER_14_129
*1423 FILLER_14_161
*1424 FILLER_14_193
*1425 FILLER_14_225
*1426 FILLER_14_257
*1427 FILLER_14_289
*1428 FILLER_14_321
*1429 FILLER_14_353
*1430 FILLER_14_385
*1431 FILLER_14_417
*1432 FILLER_14_449
*1433 FILLER_14_481
*1434 FILLER_14_513
*1435 FILLER_14_545
*1436 FILLER_14_577
*1437 FILLER_14_609
*1438 FILLER_14_625
*1439 FILLER_14_629
*1440 FILLER_14_632
*1441 FILLER_14_664
*1442 FILLER_14_696
*1443 FILLER_14_728
*1444 FILLER_14_760
*1445 FILLER_14_792
*1446 FILLER_14_824
*1447 FILLER_15_1
*1448 FILLER_15_33
*1449 FILLER_15_65
*1450 FILLER_15_97
*1451 FILLER_15_129
*1452 FILLER_15_161
*1453 FILLER_15_193
*1454 FILLER_15_225
*1455 FILLER_15_257
*1456 FILLER_15_289
*1457 FILLER_15_321
*1458 FILLER_15_353
*1459 FILLER_15_385
*1460 FILLER_15_417
*1461 FILLER_15_449
*1462 FILLER_15_481
*1463 FILLER_15_513
*1464 FILLER_15_545
*1465 FILLER_15_577
*1466 FILLER_15_609
*1467 FILLER_15_641
*1468 FILLER_15_673
*1469 FILLER_15_705
*1470 FILLER_15_737
*1471 FILLER_15_769
*1472 FILLER_15_801
*1473 FILLER_15_833
*1474 FILLER_15_837
*1475 FILLER_15_839
*1476 FILLER_16_1
*1477 FILLER_16_33
*1478 FILLER_16_65
*1479 FILLER_16_97
*1480 FILLER_16_129
*1481 FILLER_16_161
*1482 FILLER_16_193
*1483 FILLER_16_225
*1484 FILLER_16_257
*1485 FILLER_16_289
*1486 FILLER_16_321
*1487 FILLER_16_353
*1488 FILLER_16_385
*1489 FILLER_16_417
*1490 FILLER_16_449
*1491 FILLER_16_481
*1492 FILLER_16_513
*1493 FILLER_16_545
*1494 FILLER_16_577
*1495 FILLER_16_609
*1496 FILLER_16_625
*1497 FILLER_16_629
*1498 FILLER_16_632
*1499 FILLER_16_664
*1500 FILLER_16_696
*1501 FILLER_16_728
*1502 FILLER_16_760
*1503 FILLER_16_792
*1504 FILLER_16_824
*1505 FILLER_17_1
*1506 FILLER_17_33
*1507 FILLER_17_65
*1508 FILLER_17_97
*1509 FILLER_17_129
*1510 FILLER_17_161
*1511 FILLER_17_193
*1512 FILLER_17_225
*1513 FILLER_17_257
*1514 FILLER_17_289
*1515 FILLER_17_321
*1516 FILLER_17_353
*1517 FILLER_17_385
*1518 FILLER_17_417
*1519 FILLER_17_449
*1520 FILLER_17_481
*1521 FILLER_17_513
*1522 FILLER_17_545
*1523 FILLER_17_577
*1524 FILLER_17_609
*1525 FILLER_17_641
*1526 FILLER_17_673
*1527 FILLER_17_705
*1528 FILLER_17_737
*1529 FILLER_17_769
*1530 FILLER_17_801
*1531 FILLER_17_833
*1532 FILLER_17_837
*1533 FILLER_17_839
*1534 FILLER_18_1
*1535 FILLER_18_33
*1536 FILLER_18_65
*1537 FILLER_18_97
*1538 FILLER_18_129
*1539 FILLER_18_161
*1540 FILLER_18_193
*1541 FILLER_18_225
*1542 FILLER_18_257
*1543 FILLER_18_289
*1544 FILLER_18_321
*1545 FILLER_18_353
*1546 FILLER_18_385
*1547 FILLER_18_417
*1548 FILLER_18_449
*1549 FILLER_18_481
*1550 FILLER_18_513
*1551 FILLER_18_545
*1552 FILLER_18_577
*1553 FILLER_18_609
*1554 FILLER_18_625
*1555 FILLER_18_629
*1556 FILLER_18_632
*1557 FILLER_18_664
*1558 FILLER_18_696
*1559 FILLER_18_728
*1560 FILLER_18_760
*1561 FILLER_18_792
*1562 FILLER_18_824
*1563 FILLER_19_1
*1564 FILLER_19_33
*1565 FILLER_19_65
*1566 FILLER_19_97
*1567 FILLER_19_129
*1568 FILLER_19_161
*1569 FILLER_19_193
*1570 FILLER_19_225
*1571 FILLER_19_257
*1572 FILLER_19_289
*1573 FILLER_19_321
*1574 FILLER_19_353
*1575 FILLER_19_385
*1576 FILLER_19_417
*1577 FILLER_19_449
*1578 FILLER_19_481
*1579 FILLER_19_513
*1580 FILLER_19_545
*1581 FILLER_19_577
*1582 FILLER_19_609
*1583 FILLER_19_641
*1584 FILLER_19_673
*1585 FILLER_19_705
*1586 FILLER_19_737
*1587 FILLER_19_769
*1588 FILLER_19_801
*1589 FILLER_19_833
*1590 FILLER_19_837
*1591 FILLER_19_839
*1592 FILLER_20_1
*1593 FILLER_20_33
*1594 FILLER_20_65
*1595 FILLER_20_97
*1596 FILLER_20_129
*1597 FILLER_20_161
*1598 FILLER_20_193
*1599 FILLER_20_225
*1600 FILLER_20_257
*1601 FILLER_20_289
*1602 FILLER_20_321
*1603 FILLER_20_353
*1604 FILLER_20_385
*1605 FILLER_20_417
*1606 FILLER_20_449
*1607 FILLER_20_481
*1608 FILLER_20_513
*1609 FILLER_20_545
*1610 FILLER_20_577
*1611 FILLER_20_609
*1612 FILLER_20_625
*1613 FILLER_20_629
*1614 FILLER_20_632
*1615 FILLER_20_664
*1616 FILLER_20_696
*1617 FILLER_20_728
*1618 FILLER_20_760
*1619 FILLER_20_792
*1620 FILLER_20_824
*1621 FILLER_21_1
*1622 FILLER_21_33
*1623 FILLER_21_65
*1624 FILLER_21_97
*1625 FILLER_21_129
*1626 FILLER_21_161
*1627 FILLER_21_193
*1628 FILLER_21_225
*1629 FILLER_21_257
*1630 FILLER_21_289
*1631 FILLER_21_321
*1632 FILLER_21_353
*1633 FILLER_21_385
*1634 FILLER_21_417
*1635 FILLER_21_449
*1636 FILLER_21_481
*1637 FILLER_21_513
*1638 FILLER_21_545
*1639 FILLER_21_577
*1640 FILLER_21_609
*1641 FILLER_21_641
*1642 FILLER_21_673
*1643 FILLER_21_705
*1644 FILLER_21_737
*1645 FILLER_21_769
*1646 FILLER_21_801
*1647 FILLER_21_833
*1648 FILLER_21_837
*1649 FILLER_21_839
*1650 FILLER_22_1
*1651 FILLER_22_33
*1652 FILLER_22_65
*1653 FILLER_22_97
*1654 FILLER_22_129
*1655 FILLER_22_161
*1656 FILLER_22_193
*1657 FILLER_22_225
*1658 FILLER_22_257
*1659 FILLER_22_289
*1660 FILLER_22_321
*1661 FILLER_22_353
*1662 FILLER_22_385
*1663 FILLER_22_417
*1664 FILLER_22_449
*1665 FILLER_22_481
*1666 FILLER_22_513
*1667 FILLER_22_545
*1668 FILLER_22_577
*1669 FILLER_22_609
*1670 FILLER_22_625
*1671 FILLER_22_629
*1672 FILLER_22_632
*1673 FILLER_22_664
*1674 FILLER_22_696
*1675 FILLER_22_728
*1676 FILLER_22_760
*1677 FILLER_22_792
*1678 FILLER_22_824
*1679 FILLER_23_1
*1680 FILLER_23_33
*1681 FILLER_23_65
*1682 FILLER_23_97
*1683 FILLER_23_129
*1684 FILLER_23_161
*1685 FILLER_23_193
*1686 FILLER_23_225
*1687 FILLER_23_257
*1688 FILLER_23_289
*1689 FILLER_23_321
*1690 FILLER_23_353
*1691 FILLER_23_385
*1692 FILLER_23_417
*1693 FILLER_23_449
*1694 FILLER_23_481
*1695 FILLER_23_513
*1696 FILLER_23_545
*1697 FILLER_23_577
*1698 FILLER_23_609
*1699 FILLER_23_641
*1700 FILLER_23_673
*1701 FILLER_23_705
*1702 FILLER_23_737
*1703 FILLER_23_769
*1704 FILLER_23_801
*1705 FILLER_23_833
*1706 FILLER_23_837
*1707 FILLER_23_839
*1708 FILLER_24_1
*1709 FILLER_24_33
*1710 FILLER_24_65
*1711 FILLER_24_97
*1712 FILLER_24_129
*1713 FILLER_24_161
*1714 FILLER_24_193
*1715 FILLER_24_225
*1716 FILLER_24_257
*1717 FILLER_24_289
*1718 FILLER_24_321
*1719 FILLER_24_353
*1720 FILLER_24_385
*1721 FILLER_24_417
*1722 FILLER_24_449
*1723 FILLER_24_481
*1724 FILLER_24_513
*1725 FILLER_24_545
*1726 FILLER_24_577
*1727 FILLER_24_609
*1728 FILLER_24_625
*1729 FILLER_24_629
*1730 FILLER_24_632
*1731 FILLER_24_664
*1732 FILLER_24_696
*1733 FILLER_24_728
*1734 FILLER_24_760
*1735 FILLER_24_792
*1736 FILLER_24_824
*1737 FILLER_25_1
*1738 FILLER_25_33
*1739 FILLER_25_65
*1740 FILLER_25_97
*1741 FILLER_25_129
*1742 FILLER_25_161
*1743 FILLER_25_193
*1744 FILLER_25_225
*1745 FILLER_25_257
*1746 FILLER_25_289
*1747 FILLER_25_321
*1748 FILLER_25_353
*1749 FILLER_25_385
*1750 FILLER_25_417
*1751 FILLER_25_449
*1752 FILLER_25_481
*1753 FILLER_25_513
*1754 FILLER_25_545
*1755 FILLER_25_577
*1756 FILLER_25_609
*1757 FILLER_25_641
*1758 FILLER_25_673
*1759 FILLER_25_705
*1760 FILLER_25_737
*1761 FILLER_25_769
*1762 FILLER_25_801
*1763 FILLER_25_833
*1764 FILLER_25_837
*1765 FILLER_25_839
*1766 FILLER_26_1
*1767 FILLER_26_33
*1768 FILLER_26_65
*1769 FILLER_26_97
*1770 FILLER_26_129
*1771 FILLER_26_161
*1772 FILLER_26_193
*1773 FILLER_26_225
*1774 FILLER_26_257
*1775 FILLER_26_289
*1776 FILLER_26_321
*1777 FILLER_26_353
*1778 FILLER_26_385
*1779 FILLER_26_417
*1780 FILLER_26_449
*1781 FILLER_26_481
*1782 FILLER_26_513
*1783 FILLER_26_545
*1784 FILLER_26_577
*1785 FILLER_26_609
*1786 FILLER_26_625
*1787 FILLER_26_629
*1788 FILLER_26_632
*1789 FILLER_26_664
*1790 FILLER_26_696
*1791 FILLER_26_728
*1792 FILLER_26_760
*1793 FILLER_26_792
*1794 FILLER_26_824
*1795 FILLER_27_1
*1796 FILLER_27_33
*1797 FILLER_27_65
*1798 FILLER_27_97
*1799 FILLER_27_129
*1800 FILLER_27_161
*1801 FILLER_27_193
*1802 FILLER_27_225
*1803 FILLER_27_257
*1804 FILLER_27_289
*1805 FILLER_27_321
*1806 FILLER_27_353
*1807 FILLER_27_385
*1808 FILLER_27_417
*1809 FILLER_27_449
*1810 FILLER_27_481
*1811 FILLER_27_513
*1812 FILLER_27_545
*1813 FILLER_27_577
*1814 FILLER_27_609
*1815 FILLER_27_641
*1816 FILLER_27_673
*1817 FILLER_27_705
*1818 FILLER_27_737
*1819 FILLER_27_769
*1820 FILLER_27_801
*1821 FILLER_27_833
*1822 FILLER_27_837
*1823 FILLER_27_839
*1824 FILLER_28_1
*1825 FILLER_28_33
*1826 FILLER_28_65
*1827 FILLER_28_97
*1828 FILLER_28_129
*1829 FILLER_28_161
*1830 FILLER_28_193
*1831 FILLER_28_225
*1832 FILLER_28_257
*1833 FILLER_28_289
*1834 FILLER_28_321
*1835 FILLER_28_353
*1836 FILLER_28_385
*1837 FILLER_28_417
*1838 FILLER_28_449
*1839 FILLER_28_481
*1840 FILLER_28_513
*1841 FILLER_28_545
*1842 FILLER_28_577
*1843 FILLER_28_609
*1844 FILLER_28_625
*1845 FILLER_28_629
*1846 FILLER_28_632
*1847 FILLER_28_664
*1848 FILLER_28_696
*1849 FILLER_28_728
*1850 FILLER_28_760
*1851 FILLER_28_792
*1852 FILLER_28_824
*1853 FILLER_29_1
*1854 FILLER_29_33
*1855 FILLER_29_65
*1856 FILLER_29_97
*1857 FILLER_29_129
*1858 FILLER_29_161
*1859 FILLER_29_193
*1860 FILLER_29_225
*1861 FILLER_29_257
*1862 FILLER_29_289
*1863 FILLER_29_321
*1864 FILLER_29_353
*1865 FILLER_29_385
*1866 FILLER_29_417
*1867 FILLER_29_449
*1868 FILLER_29_481
*1869 FILLER_29_513
*1870 FILLER_29_545
*1871 FILLER_29_577
*1872 FILLER_29_609
*1873 FILLER_29_641
*1874 FILLER_29_673
*1875 FILLER_29_705
*1876 FILLER_29_737
*1877 FILLER_29_769
*1878 FILLER_29_801
*1879 FILLER_29_833
*1880 FILLER_29_837
*1881 FILLER_29_839
*1882 FILLER_30_1
*1883 FILLER_30_33
*1884 FILLER_30_65
*1885 FILLER_30_97
*1886 FILLER_30_129
*1887 FILLER_30_161
*1888 FILLER_30_193
*1889 FILLER_30_225
*1890 FILLER_30_257
*1891 FILLER_30_289
*1892 FILLER_30_321
*1893 FILLER_30_353
*1894 FILLER_30_385
*1895 FILLER_30_417
*1896 FILLER_30_449
*1897 FILLER_30_481
*1898 FILLER_30_513
*1899 FILLER_30_545
*1900 FILLER_30_577
*1901 FILLER_30_609
*1902 FILLER_30_625
*1903 FILLER_30_629
*1904 FILLER_30_632
*1905 FILLER_30_664
*1906 FILLER_30_696
*1907 FILLER_30_728
*1908 FILLER_30_760
*1909 FILLER_30_792
*1910 FILLER_30_824
*1911 FILLER_31_1
*1912 FILLER_31_33
*1913 FILLER_31_65
*1914 FILLER_31_97
*1915 FILLER_31_129
*1916 FILLER_31_161
*1917 FILLER_31_193
*1918 FILLER_31_225
*1919 FILLER_31_257
*1920 FILLER_31_289
*1921 FILLER_31_321
*1922 FILLER_31_353
*1923 FILLER_31_385
*1924 FILLER_31_417
*1925 FILLER_31_449
*1926 FILLER_31_481
*1927 FILLER_31_513
*1928 FILLER_31_545
*1929 FILLER_31_577
*1930 FILLER_31_609
*1931 FILLER_31_641
*1932 FILLER_31_673
*1933 FILLER_31_705
*1934 FILLER_31_737
*1935 FILLER_31_769
*1936 FILLER_31_801
*1937 FILLER_31_833
*1938 FILLER_31_837
*1939 FILLER_31_839
*1940 FILLER_32_1
*1941 FILLER_32_33
*1942 FILLER_32_65
*1943 FILLER_32_97
*1944 FILLER_32_129
*1945 FILLER_32_161
*1946 FILLER_32_193
*1947 FILLER_32_225
*1948 FILLER_32_257
*1949 FILLER_32_289
*1950 FILLER_32_321
*1951 FILLER_32_353
*1952 FILLER_32_385
*1953 FILLER_32_417
*1954 FILLER_32_449
*1955 FILLER_32_481
*1956 FILLER_32_513
*1957 FILLER_32_545
*1958 FILLER_32_577
*1959 FILLER_32_609
*1960 FILLER_32_625
*1961 FILLER_32_629
*1962 FILLER_32_632
*1963 FILLER_32_664
*1964 FILLER_32_696
*1965 FILLER_32_728
*1966 FILLER_32_760
*1967 FILLER_32_792
*1968 FILLER_32_824
*1969 FILLER_33_1
*1970 FILLER_33_33
*1971 FILLER_33_65
*1972 FILLER_33_97
*1973 FILLER_33_129
*1974 FILLER_33_161
*1975 FILLER_33_193
*1976 FILLER_33_225
*1977 FILLER_33_257
*1978 FILLER_33_289
*1979 FILLER_33_321
*1980 FILLER_33_353
*1981 FILLER_33_385
*1982 FILLER_33_417
*1983 FILLER_33_449
*1984 FILLER_33_481
*1985 FILLER_33_513
*1986 FILLER_33_545
*1987 FILLER_33_577
*1988 FILLER_33_609
*1989 FILLER_33_641
*1990 FILLER_33_673
*1991 FILLER_33_705
*1992 FILLER_33_737
*1993 FILLER_33_769
*1994 FILLER_33_801
*1995 FILLER_33_833
*1996 FILLER_33_837
*1997 FILLER_33_839
*1998 FILLER_34_1
*1999 FILLER_34_33
*2000 FILLER_34_65
*2001 FILLER_34_97
*2002 FILLER_34_129
*2003 FILLER_34_161
*2004 FILLER_34_193
*2005 FILLER_34_225
*2006 FILLER_34_257
*2007 FILLER_34_289
*2008 FILLER_34_321
*2009 FILLER_34_353
*2010 FILLER_34_385
*2011 FILLER_34_417
*2012 FILLER_34_449
*2013 FILLER_34_481
*2014 FILLER_34_513
*2015 FILLER_34_545
*2016 FILLER_34_577
*2017 FILLER_34_609
*2018 FILLER_34_625
*2019 FILLER_34_629
*2020 FILLER_34_632
*2021 FILLER_34_664
*2022 FILLER_34_696
*2023 FILLER_34_728
*2024 FILLER_34_760
*2025 FILLER_34_792
*2026 FILLER_34_824
*2027 FILLER_35_1
*2028 FILLER_35_33
*2029 FILLER_35_65
*2030 FILLER_35_97
*2031 FILLER_35_129
*2032 FILLER_35_161
*2033 FILLER_35_193
*2034 FILLER_35_225
*2035 FILLER_35_257
*2036 FILLER_35_289
*2037 FILLER_35_321
*2038 FILLER_35_353
*2039 FILLER_35_385
*2040 FILLER_35_417
*2041 FILLER_35_449
*2042 FILLER_35_481
*2043 FILLER_35_513
*2044 FILLER_35_545
*2045 FILLER_35_577
*2046 FILLER_35_609
*2047 FILLER_35_641
*2048 FILLER_35_673
*2049 FILLER_35_705
*2050 FILLER_35_737
*2051 FILLER_35_769
*2052 FILLER_35_801
*2053 FILLER_35_833
*2054 FILLER_35_837
*2055 FILLER_35_839
*2056 FILLER_36_1
*2057 FILLER_36_33
*2058 FILLER_36_65
*2059 FILLER_36_97
*2060 FILLER_36_129
*2061 FILLER_36_161
*2062 FILLER_36_193
*2063 FILLER_36_225
*2064 FILLER_36_257
*2065 FILLER_36_289
*2066 FILLER_36_321
*2067 FILLER_36_353
*2068 FILLER_36_385
*2069 FILLER_36_417
*2070 FILLER_36_449
*2071 FILLER_36_481
*2072 FILLER_36_513
*2073 FILLER_36_545
*2074 FILLER_36_577
*2075 FILLER_36_609
*2076 FILLER_36_625
*2077 FILLER_36_629
*2078 FILLER_36_632
*2079 FILLER_36_664
*2080 FILLER_36_696
*2081 FILLER_36_728
*2082 FILLER_36_760
*2083 FILLER_36_792
*2084 FILLER_36_824
*2085 FILLER_37_1
*2086 FILLER_37_33
*2087 FILLER_37_65
*2088 FILLER_37_97
*2089 FILLER_37_129
*2090 FILLER_37_161
*2091 FILLER_37_193
*2092 FILLER_37_225
*2093 FILLER_37_257
*2094 FILLER_37_289
*2095 FILLER_37_321
*2096 FILLER_37_353
*2097 FILLER_37_385
*2098 FILLER_37_417
*2099 FILLER_37_449
*2100 FILLER_37_453
*2101 FILLER_37_456
*2102 FILLER_37_488
*2103 FILLER_37_520
*2104 FILLER_37_552
*2105 FILLER_37_584
*2106 FILLER_37_616
*2107 FILLER_37_648
*2108 FILLER_37_680
*2109 FILLER_37_712
*2110 FILLER_37_744
*2111 FILLER_37_776
*2112 FILLER_37_808
*2113 FILLER_38_1
*2114 FILLER_38_33
*2115 FILLER_38_65
*2116 FILLER_38_97
*2117 FILLER_38_129
*2118 FILLER_38_161
*2119 FILLER_38_193
*2120 FILLER_38_225
*2121 FILLER_38_257
*2122 FILLER_38_289
*2123 FILLER_38_321
*2124 FILLER_38_353
*2125 FILLER_38_385
*2126 FILLER_38_417
*2127 FILLER_38_449
*2128 FILLER_38_481
*2129 FILLER_38_513
*2130 FILLER_38_545
*2131 FILLER_38_577
*2132 FILLER_38_609
*2133 FILLER_38_625
*2134 FILLER_38_629
*2135 FILLER_38_632
*2136 FILLER_38_664
*2137 FILLER_38_696
*2138 FILLER_38_728
*2139 FILLER_38_760
*2140 FILLER_38_792
*2141 FILLER_38_824
*2142 FILLER_39_1
*2143 FILLER_39_33
*2144 FILLER_39_65
*2145 FILLER_39_97
*2146 FILLER_39_129
*2147 FILLER_39_161
*2148 FILLER_39_193
*2149 FILLER_39_225
*2150 FILLER_39_257
*2151 FILLER_39_289
*2152 FILLER_39_321
*2153 FILLER_39_353
*2154 FILLER_39_385
*2155 FILLER_39_417
*2156 FILLER_39_425
*2157 FILLER_39_433
*2158 FILLER_39_437
*2159 FILLER_39_444
*2160 FILLER_39_449
*2161 FILLER_39_453
*2162 FILLER_39_457
*2163 FILLER_39_460
*2164 FILLER_39_492
*2165 FILLER_39_524
*2166 FILLER_39_556
*2167 FILLER_39_588
*2168 FILLER_39_620
*2169 FILLER_39_652
*2170 FILLER_39_684
*2171 FILLER_39_716
*2172 FILLER_39_748
*2173 FILLER_39_780
*2174 FILLER_39_812
*2175 FILLER_39_828
*2176 FILLER_39_836
*2177 FILLER_40_1
*2178 FILLER_40_33
*2179 FILLER_40_65
*2180 FILLER_40_97
*2181 FILLER_40_129
*2182 FILLER_40_161
*2183 FILLER_40_193
*2184 FILLER_40_225
*2185 FILLER_40_257
*2186 FILLER_40_289
*2187 FILLER_40_321
*2188 FILLER_40_353
*2189 FILLER_40_385
*2190 FILLER_40_417
*2191 FILLER_40_433
*2192 FILLER_40_441
*2193 FILLER_40_447
*2194 FILLER_40_453
*2195 FILLER_40_461
*2196 FILLER_40_465
*2197 FILLER_40_497
*2198 FILLER_40_529
*2199 FILLER_40_561
*2200 FILLER_40_593
*2201 FILLER_40_625
*2202 FILLER_40_629
*2203 FILLER_40_632
*2204 FILLER_40_664
*2205 FILLER_40_696
*2206 FILLER_40_728
*2207 FILLER_40_760
*2208 FILLER_40_792
*2209 FILLER_40_824
*2210 FILLER_41_1
*2211 FILLER_41_33
*2212 FILLER_41_65
*2213 FILLER_41_97
*2214 FILLER_41_129
*2215 FILLER_41_161
*2216 FILLER_41_193
*2217 FILLER_41_225
*2218 FILLER_41_257
*2219 FILLER_41_289
*2220 FILLER_41_321
*2221 FILLER_41_353
*2222 FILLER_41_385
*2223 FILLER_41_401
*2224 FILLER_41_411
*2225 FILLER_41_419
*2226 FILLER_41_423
*2227 FILLER_41_427
*2228 FILLER_41_429
*2229 FILLER_41_432
*2230 FILLER_41_448
*2231 FILLER_41_450
*2232 FILLER_41_457
*2233 FILLER_41_489
*2234 FILLER_41_521
*2235 FILLER_41_553
*2236 FILLER_41_585
*2237 FILLER_41_617
*2238 FILLER_41_649
*2239 FILLER_41_681
*2240 FILLER_41_713
*2241 FILLER_41_745
*2242 FILLER_41_777
*2243 FILLER_41_809
*2244 FILLER_41_825
*2245 FILLER_41_833
*2246 FILLER_41_837
*2247 FILLER_41_839
*2248 FILLER_42_1
*2249 FILLER_42_33
*2250 FILLER_42_65
*2251 FILLER_42_97
*2252 FILLER_42_129
*2253 FILLER_42_161
*2254 FILLER_42_193
*2255 FILLER_42_225
*2256 FILLER_42_257
*2257 FILLER_42_289
*2258 FILLER_42_321
*2259 FILLER_42_353
*2260 FILLER_42_385
*2261 FILLER_42_401
*2262 FILLER_42_411
*2263 FILLER_42_443
*2264 FILLER_42_451
*2265 FILLER_42_483
*2266 FILLER_42_515
*2267 FILLER_42_547
*2268 FILLER_42_579
*2269 FILLER_42_611
*2270 FILLER_42_627
*2271 FILLER_42_632
*2272 FILLER_42_664
*2273 FILLER_42_696
*2274 FILLER_42_728
*2275 FILLER_42_760
*2276 FILLER_42_792
*2277 FILLER_42_824
*2278 FILLER_43_1
*2279 FILLER_43_33
*2280 FILLER_43_65
*2281 FILLER_43_97
*2282 FILLER_43_129
*2283 FILLER_43_161
*2284 FILLER_43_193
*2285 FILLER_43_225
*2286 FILLER_43_257
*2287 FILLER_43_289
*2288 FILLER_43_321
*2289 FILLER_43_353
*2290 FILLER_43_369
*2291 FILLER_43_377
*2292 FILLER_43_383
*2293 FILLER_43_399
*2294 FILLER_43_406
*2295 FILLER_43_414
*2296 FILLER_43_430
*2297 FILLER_43_434
*2298 FILLER_43_438
*2299 FILLER_43_470
*2300 FILLER_43_502
*2301 FILLER_43_518
*2302 FILLER_43_522
*2303 FILLER_43_526
*2304 FILLER_43_558
*2305 FILLER_43_590
*2306 FILLER_43_622
*2307 FILLER_43_654
*2308 FILLER_43_686
*2309 FILLER_43_718
*2310 FILLER_43_750
*2311 FILLER_43_782
*2312 FILLER_43_814
*2313 FILLER_43_830
*2314 FILLER_43_838
*2315 FILLER_44_1
*2316 FILLER_44_33
*2317 FILLER_44_65
*2318 FILLER_44_97
*2319 FILLER_44_129
*2320 FILLER_44_161
*2321 FILLER_44_193
*2322 FILLER_44_225
*2323 FILLER_44_257
*2324 FILLER_44_289
*2325 FILLER_44_321
*2326 FILLER_44_353
*2327 FILLER_44_369
*2328 FILLER_44_377
*2329 FILLER_44_380
*2330 FILLER_44_384
*2331 FILLER_44_400
*2332 FILLER_44_404
*2333 FILLER_44_410
*2334 FILLER_44_442
*2335 FILLER_44_450
*2336 FILLER_44_452
*2337 FILLER_44_457
*2338 FILLER_44_463
*2339 FILLER_44_495
*2340 FILLER_44_527
*2341 FILLER_44_559
*2342 FILLER_44_591
*2343 FILLER_44_623
*2344 FILLER_44_632
*2345 FILLER_44_664
*2346 FILLER_44_696
*2347 FILLER_44_728
*2348 FILLER_44_760
*2349 FILLER_44_792
*2350 FILLER_44_824
*2351 FILLER_45_1
*2352 FILLER_45_33
*2353 FILLER_45_65
*2354 FILLER_45_97
*2355 FILLER_45_129
*2356 FILLER_45_161
*2357 FILLER_45_193
*2358 FILLER_45_225
*2359 FILLER_45_257
*2360 FILLER_45_289
*2361 FILLER_45_321
*2362 FILLER_45_353
*2363 FILLER_45_369
*2364 FILLER_45_377
*2365 FILLER_45_381
*2366 FILLER_45_385
*2367 FILLER_45_401
*2368 FILLER_45_405
*2369 FILLER_45_413
*2370 FILLER_45_445
*2371 FILLER_45_449
*2372 FILLER_45_454
*2373 FILLER_45_462
*2374 FILLER_45_468
*2375 FILLER_45_484
*2376 FILLER_45_488
*2377 FILLER_45_496
*2378 FILLER_45_500
*2379 FILLER_45_508
*2380 FILLER_45_512
*2381 FILLER_45_515
*2382 FILLER_45_523
*2383 FILLER_45_527
*2384 FILLER_45_559
*2385 FILLER_45_591
*2386 FILLER_45_623
*2387 FILLER_45_655
*2388 FILLER_45_687
*2389 FILLER_45_719
*2390 FILLER_45_751
*2391 FILLER_45_783
*2392 FILLER_45_815
*2393 FILLER_45_831
*2394 FILLER_45_839
*2395 FILLER_46_1
*2396 FILLER_46_33
*2397 FILLER_46_65
*2398 FILLER_46_97
*2399 FILLER_46_129
*2400 FILLER_46_161
*2401 FILLER_46_193
*2402 FILLER_46_225
*2403 FILLER_46_257
*2404 FILLER_46_289
*2405 FILLER_46_293
*2406 FILLER_46_300
*2407 FILLER_46_332
*2408 FILLER_46_348
*2409 FILLER_46_350
*2410 FILLER_46_357
*2411 FILLER_46_389
*2412 FILLER_46_421
*2413 FILLER_46_453
*2414 FILLER_46_461
*2415 FILLER_46_467
*2416 FILLER_46_474
*2417 FILLER_46_482
*2418 FILLER_46_486
*2419 FILLER_46_488
*2420 FILLER_46_493
*2421 FILLER_46_499
*2422 FILLER_46_507
*2423 FILLER_46_517
*2424 FILLER_46_525
*2425 FILLER_46_533
*2426 FILLER_46_549
*2427 FILLER_46_555
*2428 FILLER_46_587
*2429 FILLER_46_619
*2430 FILLER_46_627
*2431 FILLER_46_632
*2432 FILLER_46_664
*2433 FILLER_46_696
*2434 FILLER_46_728
*2435 FILLER_46_760
*2436 FILLER_46_792
*2437 FILLER_46_824
*2438 FILLER_47_1
*2439 FILLER_47_33
*2440 FILLER_47_65
*2441 FILLER_47_97
*2442 FILLER_47_129
*2443 FILLER_47_161
*2444 FILLER_47_193
*2445 FILLER_47_225
*2446 FILLER_47_257
*2447 FILLER_47_295
*2448 FILLER_47_303
*2449 FILLER_47_335
*2450 FILLER_47_343
*2451 FILLER_47_351
*2452 FILLER_47_359
*2453 FILLER_47_391
*2454 FILLER_47_407
*2455 FILLER_47_409
*2456 FILLER_47_416
*2457 FILLER_47_432
*2458 FILLER_47_440
*2459 FILLER_47_444
*2460 FILLER_47_448
*2461 FILLER_47_451
*2462 FILLER_47_459
*2463 FILLER_47_467
*2464 FILLER_47_473
*2465 FILLER_47_489
*2466 FILLER_47_497
*2467 FILLER_47_499
*2468 FILLER_47_506
*2469 FILLER_47_522
*2470 FILLER_47_532
*2471 FILLER_47_540
*2472 FILLER_47_572
*2473 FILLER_47_604
*2474 FILLER_47_636
*2475 FILLER_47_668
*2476 FILLER_47_700
*2477 FILLER_47_732
*2478 FILLER_47_764
*2479 FILLER_47_796
*2480 FILLER_47_828
*2481 FILLER_47_836
*2482 FILLER_48_1
*2483 FILLER_48_33
*2484 FILLER_48_65
*2485 FILLER_48_97
*2486 FILLER_48_129
*2487 FILLER_48_161
*2488 FILLER_48_193
*2489 FILLER_48_225
*2490 FILLER_48_241
*2491 FILLER_48_255
*2492 FILLER_48_268
*2493 FILLER_48_284
*2494 FILLER_48_292
*2495 FILLER_48_296
*2496 FILLER_48_301
*2497 FILLER_48_309
*2498 FILLER_48_313
*2499 FILLER_48_317
*2500 FILLER_48_321
*2501 FILLER_48_325
*2502 FILLER_48_329
*2503 FILLER_48_333
*2504 FILLER_48_341
*2505 FILLER_48_349
*2506 FILLER_48_357
*2507 FILLER_48_361
*2508 FILLER_48_367
*2509 FILLER_48_377
*2510 FILLER_48_381
*2511 FILLER_48_385
*2512 FILLER_48_393
*2513 FILLER_48_397
*2514 FILLER_48_403
*2515 FILLER_48_408
*2516 FILLER_48_440
*2517 FILLER_48_472
*2518 FILLER_48_480
*2519 FILLER_48_484
*2520 FILLER_48_487
*2521 FILLER_48_519
*2522 FILLER_48_551
*2523 FILLER_48_559
*2524 FILLER_48_563
*2525 FILLER_48_566
*2526 FILLER_48_598
*2527 FILLER_48_630
*2528 FILLER_48_632
*2529 FILLER_48_664
*2530 FILLER_48_696
*2531 FILLER_48_728
*2532 FILLER_48_760
*2533 FILLER_48_792
*2534 FILLER_48_824
*2535 FILLER_49_1
*2536 FILLER_49_33
*2537 FILLER_49_65
*2538 FILLER_49_97
*2539 FILLER_49_129
*2540 FILLER_49_161
*2541 FILLER_49_193
*2542 FILLER_49_225
*2543 FILLER_49_241
*2544 FILLER_49_249
*2545 FILLER_49_257
*2546 FILLER_49_261
*2547 FILLER_49_267
*2548 FILLER_49_299
*2549 FILLER_49_331
*2550 FILLER_49_333
*2551 FILLER_49_338
*2552 FILLER_49_346
*2553 FILLER_49_362
*2554 FILLER_49_368
*2555 FILLER_49_372
*2556 FILLER_49_376
*2557 FILLER_49_392
*2558 FILLER_49_396
*2559 FILLER_49_398
*2560 FILLER_49_403
*2561 FILLER_49_435
*2562 FILLER_49_467
*2563 FILLER_49_499
*2564 FILLER_49_503
*2565 FILLER_49_535
*2566 FILLER_49_543
*2567 FILLER_49_547
*2568 FILLER_49_579
*2569 FILLER_49_611
*2570 FILLER_49_643
*2571 FILLER_49_675
*2572 FILLER_49_707
*2573 FILLER_49_739
*2574 FILLER_49_771
*2575 FILLER_49_803
*2576 FILLER_49_835
*2577 FILLER_49_839
*2578 FILLER_50_1
*2579 FILLER_50_33
*2580 FILLER_50_65
*2581 FILLER_50_97
*2582 FILLER_50_129
*2583 FILLER_50_161
*2584 FILLER_50_193
*2585 FILLER_50_225
*2586 FILLER_50_257
*2587 FILLER_50_273
*2588 FILLER_50_276
*2589 FILLER_50_280
*2590 FILLER_50_284
*2591 FILLER_50_300
*2592 FILLER_50_302
*2593 FILLER_50_309
*2594 FILLER_50_341
*2595 FILLER_50_349
*2596 FILLER_50_381
*2597 FILLER_50_389
*2598 FILLER_50_394
*2599 FILLER_50_404
*2600 FILLER_50_420
*2601 FILLER_50_428
*2602 FILLER_50_431
*2603 FILLER_50_447
*2604 FILLER_50_452
*2605 FILLER_50_484
*2606 FILLER_50_516
*2607 FILLER_50_548
*2608 FILLER_50_580
*2609 FILLER_50_612
*2610 FILLER_50_628
*2611 FILLER_50_630
*2612 FILLER_50_632
*2613 FILLER_50_664
*2614 FILLER_50_696
*2615 FILLER_50_728
*2616 FILLER_50_760
*2617 FILLER_50_792
*2618 FILLER_50_824
*2619 FILLER_51_1
*2620 FILLER_51_33
*2621 FILLER_51_65
*2622 FILLER_51_97
*2623 FILLER_51_129
*2624 FILLER_51_161
*2625 FILLER_51_193
*2626 FILLER_51_225
*2627 FILLER_51_257
*2628 FILLER_51_289
*2629 FILLER_51_303
*2630 FILLER_51_311
*2631 FILLER_51_317
*2632 FILLER_51_333
*2633 FILLER_51_341
*2634 FILLER_51_346
*2635 FILLER_51_378
*2636 FILLER_51_410
*2637 FILLER_51_426
*2638 FILLER_51_434
*2639 FILLER_51_443
*2640 FILLER_51_447
*2641 FILLER_51_453
*2642 FILLER_51_469
*2643 FILLER_51_478
*2644 FILLER_51_480
*2645 FILLER_51_486
*2646 FILLER_51_493
*2647 FILLER_51_499
*2648 FILLER_51_531
*2649 FILLER_51_563
*2650 FILLER_51_595
*2651 FILLER_51_627
*2652 FILLER_51_659
*2653 FILLER_51_691
*2654 FILLER_51_723
*2655 FILLER_51_755
*2656 FILLER_51_787
*2657 FILLER_51_819
*2658 FILLER_51_835
*2659 FILLER_51_839
*2660 FILLER_52_1
*2661 FILLER_52_33
*2662 FILLER_52_65
*2663 FILLER_52_97
*2664 FILLER_52_129
*2665 FILLER_52_161
*2666 FILLER_52_193
*2667 FILLER_52_225
*2668 FILLER_52_233
*2669 FILLER_52_237
*2670 FILLER_52_245
*2671 FILLER_52_277
*2672 FILLER_52_309
*2673 FILLER_52_325
*2674 FILLER_52_329
*2675 FILLER_52_333
*2676 FILLER_52_337
*2677 FILLER_52_369
*2678 FILLER_52_401
*2679 FILLER_52_405
*2680 FILLER_52_409
*2681 FILLER_52_425
*2682 FILLER_52_433
*2683 FILLER_52_442
*2684 FILLER_52_449
*2685 FILLER_52_481
*2686 FILLER_52_513
*2687 FILLER_52_521
*2688 FILLER_52_525
*2689 FILLER_52_527
*2690 FILLER_52_534
*2691 FILLER_52_540
*2692 FILLER_52_548
*2693 FILLER_52_580
*2694 FILLER_52_612
*2695 FILLER_52_628
*2696 FILLER_52_630
*2697 FILLER_52_632
*2698 FILLER_52_664
*2699 FILLER_52_696
*2700 FILLER_52_728
*2701 FILLER_52_760
*2702 FILLER_52_792
*2703 FILLER_52_824
*2704 FILLER_53_1
*2705 FILLER_53_33
*2706 FILLER_53_65
*2707 FILLER_53_97
*2708 FILLER_53_129
*2709 FILLER_53_161
*2710 FILLER_53_193
*2711 FILLER_53_225
*2712 FILLER_53_233
*2713 FILLER_53_240
*2714 FILLER_53_248
*2715 FILLER_53_266
*2716 FILLER_53_270
*2717 FILLER_53_274
*2718 FILLER_53_306
*2719 FILLER_53_338
*2720 FILLER_53_346
*2721 FILLER_53_348
*2722 FILLER_53_355
*2723 FILLER_53_371
*2724 FILLER_53_375
*2725 FILLER_53_377
*2726 FILLER_53_380
*2727 FILLER_53_396
*2728 FILLER_53_408
*2729 FILLER_53_414
*2730 FILLER_53_416
*2731 FILLER_53_419
*2732 FILLER_53_435
*2733 FILLER_53_439
*2734 FILLER_53_441
*2735 FILLER_53_448
*2736 FILLER_53_480
*2737 FILLER_53_496
*2738 FILLER_53_504
*2739 FILLER_53_509
*2740 FILLER_53_525
*2741 FILLER_53_533
*2742 FILLER_53_539
*2743 FILLER_53_543
*2744 FILLER_53_550
*2745 FILLER_53_558
*2746 FILLER_53_590
*2747 FILLER_53_622
*2748 FILLER_53_654
*2749 FILLER_53_686
*2750 FILLER_53_718
*2751 FILLER_53_750
*2752 FILLER_53_782
*2753 FILLER_53_814
*2754 FILLER_53_830
*2755 FILLER_53_838
*2756 FILLER_54_1
*2757 FILLER_54_33
*2758 FILLER_54_65
*2759 FILLER_54_97
*2760 FILLER_54_129
*2761 FILLER_54_161
*2762 FILLER_54_193
*2763 FILLER_54_201
*2764 FILLER_54_203
*2765 FILLER_54_210
*2766 FILLER_54_216
*2767 FILLER_54_248
*2768 FILLER_54_253
*2769 FILLER_54_269
*2770 FILLER_54_277
*2771 FILLER_54_283
*2772 FILLER_54_299
*2773 FILLER_54_303
*2774 FILLER_54_311
*2775 FILLER_54_327
*2776 FILLER_54_335
*2777 FILLER_54_339
*2778 FILLER_54_347
*2779 FILLER_54_355
*2780 FILLER_54_362
*2781 FILLER_54_370
*2782 FILLER_54_376
*2783 FILLER_54_380
*2784 FILLER_54_385
*2785 FILLER_54_405
*2786 FILLER_54_412
*2787 FILLER_54_428
*2788 FILLER_54_436
*2789 FILLER_54_440
*2790 FILLER_54_443
*2791 FILLER_54_475
*2792 FILLER_54_491
*2793 FILLER_54_501
*2794 FILLER_54_509
*2795 FILLER_54_515
*2796 FILLER_54_521
*2797 FILLER_54_527
*2798 FILLER_54_531
*2799 FILLER_54_535
*2800 FILLER_54_542
*2801 FILLER_54_544
*2802 FILLER_54_549
*2803 FILLER_54_565
*2804 FILLER_54_573
*2805 FILLER_54_575
*2806 FILLER_54_578
*2807 FILLER_54_610
*2808 FILLER_54_626
*2809 FILLER_54_630
*2810 FILLER_54_632
*2811 FILLER_54_664
*2812 FILLER_54_696
*2813 FILLER_54_728
*2814 FILLER_54_760
*2815 FILLER_54_792
*2816 FILLER_54_824
*2817 FILLER_55_1
*2818 FILLER_55_33
*2819 FILLER_55_65
*2820 FILLER_55_97
*2821 FILLER_55_129
*2822 FILLER_55_161
*2823 FILLER_55_193
*2824 FILLER_55_197
*2825 FILLER_55_204
*2826 FILLER_55_212
*2827 FILLER_55_244
*2828 FILLER_55_252
*2829 FILLER_55_256
*2830 FILLER_55_263
*2831 FILLER_55_295
*2832 FILLER_55_305
*2833 FILLER_55_313
*2834 FILLER_55_319
*2835 FILLER_55_351
*2836 FILLER_55_356
*2837 FILLER_55_372
*2838 FILLER_55_376
*2839 FILLER_55_382
*2840 FILLER_55_389
*2841 FILLER_55_421
*2842 FILLER_55_453
*2843 FILLER_55_485
*2844 FILLER_55_517
*2845 FILLER_55_549
*2846 FILLER_55_581
*2847 FILLER_55_613
*2848 FILLER_55_645
*2849 FILLER_55_677
*2850 FILLER_55_709
*2851 FILLER_55_741
*2852 FILLER_55_773
*2853 FILLER_55_805
*2854 FILLER_55_837
*2855 FILLER_55_839
*2856 FILLER_56_1
*2857 FILLER_56_33
*2858 FILLER_56_65
*2859 FILLER_56_97
*2860 FILLER_56_129
*2861 FILLER_56_161
*2862 FILLER_56_193
*2863 FILLER_56_225
*2864 FILLER_56_229
*2865 FILLER_56_233
*2866 FILLER_56_237
*2867 FILLER_56_241
*2868 FILLER_56_245
*2869 FILLER_56_249
*2870 FILLER_56_257
*2871 FILLER_56_265
*2872 FILLER_56_275
*2873 FILLER_56_307
*2874 FILLER_56_323
*2875 FILLER_56_327
*2876 FILLER_56_331
*2877 FILLER_56_335
*2878 FILLER_56_339
*2879 FILLER_56_371
*2880 FILLER_56_379
*2881 FILLER_56_381
*2882 FILLER_56_384
*2883 FILLER_56_392
*2884 FILLER_56_396
*2885 FILLER_56_398
*2886 FILLER_56_402
*2887 FILLER_56_410
*2888 FILLER_56_417
*2889 FILLER_56_449
*2890 FILLER_56_481
*2891 FILLER_56_513
*2892 FILLER_56_545
*2893 FILLER_56_577
*2894 FILLER_56_609
*2895 FILLER_56_625
*2896 FILLER_56_629
*2897 FILLER_56_632
*2898 FILLER_56_664
*2899 FILLER_56_696
*2900 FILLER_56_728
*2901 FILLER_56_760
*2902 FILLER_56_792
*2903 FILLER_56_824
*2904 FILLER_57_1
*2905 FILLER_57_33
*2906 FILLER_57_65
*2907 FILLER_57_97
*2908 FILLER_57_129
*2909 FILLER_57_161
*2910 FILLER_57_193
*2911 FILLER_57_225
*2912 FILLER_57_241
*2913 FILLER_57_249
*2914 FILLER_57_251
*2915 FILLER_57_258
*2916 FILLER_57_290
*2917 FILLER_57_322
*2918 FILLER_57_354
*2919 FILLER_57_386
*2920 FILLER_57_418
*2921 FILLER_57_434
*2922 FILLER_57_436
*2923 FILLER_57_445
*2924 FILLER_57_452
*2925 FILLER_57_484
*2926 FILLER_57_490
*2927 FILLER_57_496
*2928 FILLER_57_528
*2929 FILLER_57_536
*2930 FILLER_57_542
*2931 FILLER_57_574
*2932 FILLER_57_606
*2933 FILLER_57_638
*2934 FILLER_57_670
*2935 FILLER_57_702
*2936 FILLER_57_734
*2937 FILLER_57_766
*2938 FILLER_57_798
*2939 FILLER_57_830
*2940 FILLER_57_838
*2941 FILLER_58_1
*2942 FILLER_58_33
*2943 FILLER_58_65
*2944 FILLER_58_97
*2945 FILLER_58_129
*2946 FILLER_58_161
*2947 FILLER_58_193
*2948 FILLER_58_225
*2949 FILLER_58_257
*2950 FILLER_58_289
*2951 FILLER_58_291
*2952 FILLER_58_294
*2953 FILLER_58_326
*2954 FILLER_58_358
*2955 FILLER_58_390
*2956 FILLER_58_422
*2957 FILLER_58_438
*2958 FILLER_58_451
*2959 FILLER_58_459
*2960 FILLER_58_464
*2961 FILLER_58_472
*2962 FILLER_58_478
*2963 FILLER_58_480
*2964 FILLER_58_485
*2965 FILLER_58_490
*2966 FILLER_58_498
*2967 FILLER_58_502
*2968 FILLER_58_506
*2969 FILLER_58_538
*2970 FILLER_58_570
*2971 FILLER_58_602
*2972 FILLER_58_618
*2973 FILLER_58_626
*2974 FILLER_58_630
*2975 FILLER_58_632
*2976 FILLER_58_664
*2977 FILLER_58_696
*2978 FILLER_58_728
*2979 FILLER_58_760
*2980 FILLER_58_792
*2981 FILLER_58_824
*2982 FILLER_59_1
*2983 FILLER_59_33
*2984 FILLER_59_65
*2985 FILLER_59_97
*2986 FILLER_59_129
*2987 FILLER_59_161
*2988 FILLER_59_193
*2989 FILLER_59_201
*2990 FILLER_59_205
*2991 FILLER_59_207
*2992 FILLER_59_210
*2993 FILLER_59_218
*2994 FILLER_59_222
*2995 FILLER_59_230
*2996 FILLER_59_238
*2997 FILLER_59_246
*2998 FILLER_59_250
*2999 FILLER_59_258
*3000 FILLER_59_264
*3001 FILLER_59_296
*3002 FILLER_59_328
*3003 FILLER_59_336
*3004 FILLER_59_340
*3005 FILLER_59_342
*3006 FILLER_59_348
*3007 FILLER_59_356
*3008 FILLER_59_360
*3009 FILLER_59_362
*3010 FILLER_59_367
*3011 FILLER_59_383
*3012 FILLER_59_391
*3013 FILLER_59_395
*3014 FILLER_59_401
*3015 FILLER_59_433
*3016 FILLER_59_465
*3017 FILLER_59_497
*3018 FILLER_59_535
*3019 FILLER_59_545
*3020 FILLER_59_577
*3021 FILLER_59_609
*3022 FILLER_59_641
*3023 FILLER_59_673
*3024 FILLER_59_705
*3025 FILLER_59_737
*3026 FILLER_59_769
*3027 FILLER_59_801
*3028 FILLER_59_833
*3029 FILLER_59_837
*3030 FILLER_59_839
*3031 FILLER_60_1
*3032 FILLER_60_33
*3033 FILLER_60_65
*3034 FILLER_60_97
*3035 FILLER_60_129
*3036 FILLER_60_161
*3037 FILLER_60_193
*3038 FILLER_60_225
*3039 FILLER_60_257
*3040 FILLER_60_261
*3041 FILLER_60_264
*3042 FILLER_60_272
*3043 FILLER_60_276
*3044 FILLER_60_283
*3045 FILLER_60_317
*3046 FILLER_60_325
*3047 FILLER_60_327
*3048 FILLER_60_331
*3049 FILLER_60_337
*3050 FILLER_60_344
*3051 FILLER_60_351
*3052 FILLER_60_355
*3053 FILLER_60_361
*3054 FILLER_60_368
*3055 FILLER_60_374
*3056 FILLER_60_390
*3057 FILLER_60_398
*3058 FILLER_60_402
*3059 FILLER_60_404
*3060 FILLER_60_410
*3061 FILLER_60_442
*3062 FILLER_60_474
*3063 FILLER_60_490
*3064 FILLER_60_498
*3065 FILLER_60_502
*3066 FILLER_60_510
*3067 FILLER_60_517
*3068 FILLER_60_525
*3069 FILLER_60_529
*3070 FILLER_60_531
*3071 FILLER_60_538
*3072 FILLER_60_546
*3073 FILLER_60_554
*3074 FILLER_60_562
*3075 FILLER_60_566
*3076 FILLER_60_569
*3077 FILLER_60_571
*3078 FILLER_60_574
*3079 FILLER_60_606
*3080 FILLER_60_622
*3081 FILLER_60_630
*3082 FILLER_60_632
*3083 FILLER_60_664
*3084 FILLER_60_696
*3085 FILLER_60_728
*3086 FILLER_60_760
*3087 FILLER_60_792
*3088 FILLER_60_824
*3089 FILLER_61_1
*3090 FILLER_61_33
*3091 FILLER_61_65
*3092 FILLER_61_97
*3093 FILLER_61_129
*3094 FILLER_61_161
*3095 FILLER_61_193
*3096 FILLER_61_225
*3097 FILLER_61_229
*3098 FILLER_61_236
*3099 FILLER_61_268
*3100 FILLER_61_272
*3101 FILLER_61_279
*3102 FILLER_61_287
*3103 FILLER_61_289
*3104 FILLER_61_296
*3105 FILLER_61_304
*3106 FILLER_61_306
*3107 FILLER_61_309
*3108 FILLER_61_315
*3109 FILLER_61_347
*3110 FILLER_61_367
*3111 FILLER_61_371
*3112 FILLER_61_374
*3113 FILLER_61_390
*3114 FILLER_61_394
*3115 FILLER_61_396
*3116 FILLER_61_405
*3117 FILLER_61_411
*3118 FILLER_61_427
*3119 FILLER_61_431
*3120 FILLER_61_433
*3121 FILLER_61_437
*3122 FILLER_61_444
*3123 FILLER_61_451
*3124 FILLER_61_483
*3125 FILLER_61_491
*3126 FILLER_61_495
*3127 FILLER_61_497
*3128 FILLER_61_504
*3129 FILLER_61_512
*3130 FILLER_61_520
*3131 FILLER_61_524
*3132 FILLER_61_526
*3133 FILLER_61_529
*3134 FILLER_61_537
*3135 FILLER_61_541
*3136 FILLER_61_545
*3137 FILLER_61_577
*3138 FILLER_61_609
*3139 FILLER_61_641
*3140 FILLER_61_673
*3141 FILLER_61_705
*3142 FILLER_61_737
*3143 FILLER_61_769
*3144 FILLER_61_801
*3145 FILLER_61_833
*3146 FILLER_61_837
*3147 FILLER_61_839
*3148 FILLER_62_1
*3149 FILLER_62_33
*3150 FILLER_62_65
*3151 FILLER_62_97
*3152 FILLER_62_129
*3153 FILLER_62_161
*3154 FILLER_62_193
*3155 FILLER_62_225
*3156 FILLER_62_241
*3157 FILLER_62_245
*3158 FILLER_62_249
*3159 FILLER_62_257
*3160 FILLER_62_265
*3161 FILLER_62_269
*3162 FILLER_62_277
*3163 FILLER_62_279
*3164 FILLER_62_282
*3165 FILLER_62_287
*3166 FILLER_62_295
*3167 FILLER_62_299
*3168 FILLER_62_301
*3169 FILLER_62_304
*3170 FILLER_62_320
*3171 FILLER_62_328
*3172 FILLER_62_330
*3173 FILLER_62_335
*3174 FILLER_62_367
*3175 FILLER_62_399
*3176 FILLER_62_405
*3177 FILLER_62_413
*3178 FILLER_62_417
*3179 FILLER_62_420
*3180 FILLER_62_436
*3181 FILLER_62_438
*3182 FILLER_62_442
*3183 FILLER_62_450
*3184 FILLER_62_456
*3185 FILLER_62_472
*3186 FILLER_62_476
*3187 FILLER_62_479
*3188 FILLER_62_495
*3189 FILLER_62_499
*3190 FILLER_62_501
*3191 FILLER_62_506
*3192 FILLER_62_538
*3193 FILLER_62_570
*3194 FILLER_62_602
*3195 FILLER_62_618
*3196 FILLER_62_626
*3197 FILLER_62_630
*3198 FILLER_62_632
*3199 FILLER_62_664
*3200 FILLER_62_696
*3201 FILLER_62_728
*3202 FILLER_62_760
*3203 FILLER_62_792
*3204 FILLER_62_824
*3205 FILLER_63_1
*3206 FILLER_63_33
*3207 FILLER_63_65
*3208 FILLER_63_97
*3209 FILLER_63_129
*3210 FILLER_63_161
*3211 FILLER_63_193
*3212 FILLER_63_225
*3213 FILLER_63_241
*3214 FILLER_63_249
*3215 FILLER_63_253
*3216 FILLER_63_255
*3217 FILLER_63_260
*3218 FILLER_63_268
*3219 FILLER_63_272
*3220 FILLER_63_304
*3221 FILLER_63_308
*3222 FILLER_63_312
*3223 FILLER_63_344
*3224 FILLER_63_376
*3225 FILLER_63_392
*3226 FILLER_63_400
*3227 FILLER_63_402
*3228 FILLER_63_408
*3229 FILLER_63_440
*3230 FILLER_63_456
*3231 FILLER_63_464
*3232 FILLER_63_471
*3233 FILLER_63_503
*3234 FILLER_63_535
*3235 FILLER_63_567
*3236 FILLER_63_599
*3237 FILLER_63_631
*3238 FILLER_63_663
*3239 FILLER_63_695
*3240 FILLER_63_727
*3241 FILLER_63_759
*3242 FILLER_63_791
*3243 FILLER_63_823
*3244 FILLER_63_839
*3245 FILLER_64_1
*3246 FILLER_64_33
*3247 FILLER_64_65
*3248 FILLER_64_97
*3249 FILLER_64_129
*3250 FILLER_64_161
*3251 FILLER_64_193
*3252 FILLER_64_225
*3253 FILLER_64_257
*3254 FILLER_64_289
*3255 FILLER_64_297
*3256 FILLER_64_301
*3257 FILLER_64_306
*3258 FILLER_64_314
*3259 FILLER_64_320
*3260 FILLER_64_352
*3261 FILLER_64_357
*3262 FILLER_64_389
*3263 FILLER_64_397
*3264 FILLER_64_401
*3265 FILLER_64_433
*3266 FILLER_64_449
*3267 FILLER_64_453
*3268 FILLER_64_461
*3269 FILLER_64_469
*3270 FILLER_64_474
*3271 FILLER_64_478
*3272 FILLER_64_480
*3273 FILLER_64_485
*3274 FILLER_64_491
*3275 FILLER_64_523
*3276 FILLER_64_555
*3277 FILLER_64_587
*3278 FILLER_64_619
*3279 FILLER_64_627
*3280 FILLER_64_632
*3281 FILLER_64_664
*3282 FILLER_64_696
*3283 FILLER_64_728
*3284 FILLER_64_760
*3285 FILLER_64_792
*3286 FILLER_64_824
*3287 FILLER_65_1
*3288 FILLER_65_33
*3289 FILLER_65_49
*3290 FILLER_65_56
*3291 FILLER_65_88
*3292 FILLER_65_120
*3293 FILLER_65_152
*3294 FILLER_65_184
*3295 FILLER_65_216
*3296 FILLER_65_232
*3297 FILLER_65_236
*3298 FILLER_65_240
*3299 FILLER_65_272
*3300 FILLER_65_304
*3301 FILLER_65_336
*3302 FILLER_65_344
*3303 FILLER_65_348
*3304 FILLER_65_350
*3305 FILLER_65_353
*3306 FILLER_65_355
*3307 FILLER_65_362
*3308 FILLER_65_378
*3309 FILLER_65_386
*3310 FILLER_65_390
*3311 FILLER_65_394
*3312 FILLER_65_399
*3313 FILLER_65_407
*3314 FILLER_65_409
*3315 FILLER_65_414
*3316 FILLER_65_446
*3317 FILLER_65_478
*3318 FILLER_65_510
*3319 FILLER_65_542
*3320 FILLER_65_574
*3321 FILLER_65_606
*3322 FILLER_65_638
*3323 FILLER_65_670
*3324 FILLER_65_702
*3325 FILLER_65_734
*3326 FILLER_65_766
*3327 FILLER_65_798
*3328 FILLER_65_830
*3329 FILLER_65_838
*3330 FILLER_66_1
*3331 FILLER_66_33
*3332 FILLER_66_65
*3333 FILLER_66_97
*3334 FILLER_66_129
*3335 FILLER_66_161
*3336 FILLER_66_193
*3337 FILLER_66_209
*3338 FILLER_66_213
*3339 FILLER_66_217
*3340 FILLER_66_225
*3341 FILLER_66_229
*3342 FILLER_66_231
*3343 FILLER_66_238
*3344 FILLER_66_246
*3345 FILLER_66_254
*3346 FILLER_66_262
*3347 FILLER_66_268
*3348 FILLER_66_272
*3349 FILLER_66_276
*3350 FILLER_66_292
*3351 FILLER_66_299
*3352 FILLER_66_305
*3353 FILLER_66_337
*3354 FILLER_66_353
*3355 FILLER_66_355
*3356 FILLER_66_360
*3357 FILLER_66_366
*3358 FILLER_66_398
*3359 FILLER_66_406
*3360 FILLER_66_410
*3361 FILLER_66_415
*3362 FILLER_66_422
*3363 FILLER_66_454
*3364 FILLER_66_486
*3365 FILLER_66_518
*3366 FILLER_66_550
*3367 FILLER_66_582
*3368 FILLER_66_614
*3369 FILLER_66_630
*3370 FILLER_66_632
*3371 FILLER_66_664
*3372 FILLER_66_696
*3373 FILLER_66_728
*3374 FILLER_66_760
*3375 FILLER_66_792
*3376 FILLER_66_824
*3377 FILLER_67_1
*3378 FILLER_67_33
*3379 FILLER_67_65
*3380 FILLER_67_97
*3381 FILLER_67_129
*3382 FILLER_67_161
*3383 FILLER_67_193
*3384 FILLER_67_225
*3385 FILLER_67_257
*3386 FILLER_67_261
*3387 FILLER_67_268
*3388 FILLER_67_276
*3389 FILLER_67_284
*3390 FILLER_67_288
*3391 FILLER_67_290
*3392 FILLER_67_293
*3393 FILLER_67_301
*3394 FILLER_67_317
*3395 FILLER_67_325
*3396 FILLER_67_329
*3397 FILLER_67_361
*3398 FILLER_67_393
*3399 FILLER_67_411
*3400 FILLER_67_443
*3401 FILLER_67_459
*3402 FILLER_67_467
*3403 FILLER_67_471
*3404 FILLER_67_478
*3405 FILLER_67_510
*3406 FILLER_67_542
*3407 FILLER_67_574
*3408 FILLER_67_606
*3409 FILLER_67_638
*3410 FILLER_67_670
*3411 FILLER_67_702
*3412 FILLER_67_734
*3413 FILLER_67_766
*3414 FILLER_67_798
*3415 FILLER_67_830
*3416 FILLER_67_838
*3417 FILLER_68_1
*3418 FILLER_68_33
*3419 FILLER_68_65
*3420 FILLER_68_97
*3421 FILLER_68_129
*3422 FILLER_68_161
*3423 FILLER_68_193
*3424 FILLER_68_225
*3425 FILLER_68_233
*3426 FILLER_68_241
*3427 FILLER_68_257
*3428 FILLER_68_265
*3429 FILLER_68_269
*3430 FILLER_68_285
*3431 FILLER_68_293
*3432 FILLER_68_297
*3433 FILLER_68_299
*3434 FILLER_68_302
*3435 FILLER_68_334
*3436 FILLER_68_338
*3437 FILLER_68_340
*3438 FILLER_68_345
*3439 FILLER_68_355
*3440 FILLER_68_363
*3441 FILLER_68_366
*3442 FILLER_68_382
*3443 FILLER_68_386
*3444 FILLER_68_392
*3445 FILLER_68_400
*3446 FILLER_68_408
*3447 FILLER_68_440
*3448 FILLER_68_448
*3449 FILLER_68_452
*3450 FILLER_68_457
*3451 FILLER_68_459
*3452 FILLER_68_466
*3453 FILLER_68_471
*3454 FILLER_68_487
*3455 FILLER_68_491
*3456 FILLER_68_493
*3457 FILLER_68_496
*3458 FILLER_68_528
*3459 FILLER_68_560
*3460 FILLER_68_592
*3461 FILLER_68_624
*3462 FILLER_68_628
*3463 FILLER_68_630
*3464 FILLER_68_632
*3465 FILLER_68_664
*3466 FILLER_68_696
*3467 FILLER_68_728
*3468 FILLER_68_760
*3469 FILLER_68_792
*3470 FILLER_68_824
*3471 FILLER_69_1
*3472 FILLER_69_33
*3473 FILLER_69_65
*3474 FILLER_69_97
*3475 FILLER_69_129
*3476 FILLER_69_161
*3477 FILLER_69_193
*3478 FILLER_69_225
*3479 FILLER_69_257
*3480 FILLER_69_289
*3481 FILLER_69_293
*3482 FILLER_69_298
*3483 FILLER_69_304
*3484 FILLER_69_309
*3485 FILLER_69_313
*3486 FILLER_69_317
*3487 FILLER_69_333
*3488 FILLER_69_341
*3489 FILLER_69_351
*3490 FILLER_69_383
*3491 FILLER_69_393
*3492 FILLER_69_398
*3493 FILLER_69_406
*3494 FILLER_69_422
*3495 FILLER_69_426
*3496 FILLER_69_428
*3497 FILLER_69_431
*3498 FILLER_69_447
*3499 FILLER_69_451
*3500 FILLER_69_453
*3501 FILLER_69_460
*3502 FILLER_69_476
*3503 FILLER_69_486
*3504 FILLER_69_518
*3505 FILLER_69_550
*3506 FILLER_69_582
*3507 FILLER_69_614
*3508 FILLER_69_646
*3509 FILLER_69_678
*3510 FILLER_69_710
*3511 FILLER_69_742
*3512 FILLER_69_774
*3513 FILLER_69_806
*3514 FILLER_69_838
*3515 FILLER_70_1
*3516 FILLER_70_33
*3517 FILLER_70_65
*3518 FILLER_70_97
*3519 FILLER_70_129
*3520 FILLER_70_161
*3521 FILLER_70_193
*3522 FILLER_70_225
*3523 FILLER_70_257
*3524 FILLER_70_289
*3525 FILLER_70_321
*3526 FILLER_70_337
*3527 FILLER_70_341
*3528 FILLER_70_346
*3529 FILLER_70_378
*3530 FILLER_70_410
*3531 FILLER_70_442
*3532 FILLER_70_452
*3533 FILLER_70_460
*3534 FILLER_70_492
*3535 FILLER_70_524
*3536 FILLER_70_556
*3537 FILLER_70_588
*3538 FILLER_70_620
*3539 FILLER_70_628
*3540 FILLER_70_630
*3541 FILLER_70_632
*3542 FILLER_70_664
*3543 FILLER_70_696
*3544 FILLER_70_728
*3545 FILLER_70_760
*3546 FILLER_70_792
*3547 FILLER_70_824
*3548 FILLER_71_1
*3549 FILLER_71_33
*3550 FILLER_71_65
*3551 FILLER_71_97
*3552 FILLER_71_129
*3553 FILLER_71_161
*3554 FILLER_71_193
*3555 FILLER_71_225
*3556 FILLER_71_257
*3557 FILLER_71_273
*3558 FILLER_71_281
*3559 FILLER_71_284
*3560 FILLER_71_288
*3561 FILLER_71_304
*3562 FILLER_71_314
*3563 FILLER_71_320
*3564 FILLER_71_328
*3565 FILLER_71_333
*3566 FILLER_71_337
*3567 FILLER_71_339
*3568 FILLER_71_342
*3569 FILLER_71_346
*3570 FILLER_71_354
*3571 FILLER_71_370
*3572 FILLER_71_380
*3573 FILLER_71_388
*3574 FILLER_71_392
*3575 FILLER_71_395
*3576 FILLER_71_403
*3577 FILLER_71_435
*3578 FILLER_71_448
*3579 FILLER_71_456
*3580 FILLER_71_461
*3581 FILLER_71_493
*3582 FILLER_71_525
*3583 FILLER_71_557
*3584 FILLER_71_589
*3585 FILLER_71_621
*3586 FILLER_71_653
*3587 FILLER_71_685
*3588 FILLER_71_717
*3589 FILLER_71_749
*3590 FILLER_71_781
*3591 FILLER_71_813
*3592 FILLER_71_829
*3593 FILLER_71_837
*3594 FILLER_71_839
*3595 FILLER_72_1
*3596 FILLER_72_33
*3597 FILLER_72_65
*3598 FILLER_72_97
*3599 FILLER_72_129
*3600 FILLER_72_161
*3601 FILLER_72_193
*3602 FILLER_72_225
*3603 FILLER_72_257
*3604 FILLER_72_289
*3605 FILLER_72_321
*3606 FILLER_72_325
*3607 FILLER_72_327
*3608 FILLER_72_334
*3609 FILLER_72_366
*3610 FILLER_72_382
*3611 FILLER_72_390
*3612 FILLER_72_400
*3613 FILLER_72_416
*3614 FILLER_72_420
*3615 FILLER_72_424
*3616 FILLER_72_428
*3617 FILLER_72_444
*3618 FILLER_72_448
*3619 FILLER_72_455
*3620 FILLER_72_461
*3621 FILLER_72_493
*3622 FILLER_72_525
*3623 FILLER_72_557
*3624 FILLER_72_589
*3625 FILLER_72_621
*3626 FILLER_72_629
*3627 FILLER_72_632
*3628 FILLER_72_664
*3629 FILLER_72_696
*3630 FILLER_72_728
*3631 FILLER_72_760
*3632 FILLER_72_792
*3633 FILLER_72_824
*3634 FILLER_73_1
*3635 FILLER_73_33
*3636 FILLER_73_65
*3637 FILLER_73_97
*3638 FILLER_73_129
*3639 FILLER_73_161
*3640 FILLER_73_193
*3641 FILLER_73_225
*3642 FILLER_73_257
*3643 FILLER_73_289
*3644 FILLER_73_321
*3645 FILLER_73_337
*3646 FILLER_73_347
*3647 FILLER_73_363
*3648 FILLER_73_373
*3649 FILLER_73_392
*3650 FILLER_73_400
*3651 FILLER_73_408
*3652 FILLER_73_426
*3653 FILLER_73_442
*3654 FILLER_73_456
*3655 FILLER_73_472
*3656 FILLER_73_482
*3657 FILLER_73_514
*3658 FILLER_73_546
*3659 FILLER_73_578
*3660 FILLER_73_610
*3661 FILLER_73_642
*3662 FILLER_73_674
*3663 FILLER_73_706
*3664 FILLER_73_738
*3665 FILLER_73_770
*3666 FILLER_73_802
*3667 FILLER_73_834
*3668 FILLER_73_838
*3669 FILLER_74_1
*3670 FILLER_74_33
*3671 FILLER_74_65
*3672 FILLER_74_97
*3673 FILLER_74_129
*3674 FILLER_74_161
*3675 FILLER_74_193
*3676 FILLER_74_225
*3677 FILLER_74_257
*3678 FILLER_74_289
*3679 FILLER_74_321
*3680 FILLER_74_353
*3681 FILLER_74_385
*3682 FILLER_74_393
*3683 FILLER_74_401
*3684 FILLER_74_417
*3685 FILLER_74_425
*3686 FILLER_74_429
*3687 FILLER_74_432
*3688 FILLER_74_464
*3689 FILLER_74_496
*3690 FILLER_74_528
*3691 FILLER_74_560
*3692 FILLER_74_592
*3693 FILLER_74_624
*3694 FILLER_74_628
*3695 FILLER_74_630
*3696 FILLER_74_632
*3697 FILLER_74_664
*3698 FILLER_74_696
*3699 FILLER_74_728
*3700 FILLER_74_760
*3701 FILLER_74_792
*3702 FILLER_74_824
*3703 FILLER_75_1
*3704 FILLER_75_33
*3705 FILLER_75_65
*3706 FILLER_75_97
*3707 FILLER_75_129
*3708 FILLER_75_161
*3709 FILLER_75_193
*3710 FILLER_75_225
*3711 FILLER_75_257
*3712 FILLER_75_289
*3713 FILLER_75_321
*3714 FILLER_75_353
*3715 FILLER_75_385
*3716 FILLER_75_417
*3717 FILLER_75_449
*3718 FILLER_75_481
*3719 FILLER_75_513
*3720 FILLER_75_545
*3721 FILLER_75_577
*3722 FILLER_75_609
*3723 FILLER_75_641
*3724 FILLER_75_673
*3725 FILLER_75_705
*3726 FILLER_75_737
*3727 FILLER_75_769
*3728 FILLER_75_801
*3729 FILLER_75_833
*3730 FILLER_75_837
*3731 FILLER_75_839
*3732 FILLER_76_1
*3733 FILLER_76_33
*3734 FILLER_76_65
*3735 FILLER_76_97
*3736 FILLER_76_129
*3737 FILLER_76_161
*3738 FILLER_76_193
*3739 FILLER_76_225
*3740 FILLER_76_257
*3741 FILLER_76_289
*3742 FILLER_76_321
*3743 FILLER_76_353
*3744 FILLER_76_385
*3745 FILLER_76_417
*3746 FILLER_76_449
*3747 FILLER_76_481
*3748 FILLER_76_513
*3749 FILLER_76_545
*3750 FILLER_76_577
*3751 FILLER_76_609
*3752 FILLER_76_625
*3753 FILLER_76_629
*3754 FILLER_76_632
*3755 FILLER_76_664
*3756 FILLER_76_696
*3757 FILLER_76_728
*3758 FILLER_76_760
*3759 FILLER_76_792
*3760 FILLER_76_824
*3761 FILLER_77_1
*3762 FILLER_77_33
*3763 FILLER_77_65
*3764 FILLER_77_97
*3765 FILLER_77_129
*3766 FILLER_77_161
*3767 FILLER_77_193
*3768 FILLER_77_225
*3769 FILLER_77_257
*3770 FILLER_77_289
*3771 FILLER_77_321
*3772 FILLER_77_353
*3773 FILLER_77_385
*3774 FILLER_77_417
*3775 FILLER_77_449
*3776 FILLER_77_481
*3777 FILLER_77_513
*3778 FILLER_77_545
*3779 FILLER_77_577
*3780 FILLER_77_609
*3781 FILLER_77_641
*3782 FILLER_77_673
*3783 FILLER_77_705
*3784 FILLER_77_737
*3785 FILLER_77_769
*3786 FILLER_77_801
*3787 FILLER_77_833
*3788 FILLER_77_837
*3789 FILLER_77_839
*3790 FILLER_78_1
*3791 FILLER_78_33
*3792 FILLER_78_65
*3793 FILLER_78_97
*3794 FILLER_78_129
*3795 FILLER_78_161
*3796 FILLER_78_193
*3797 FILLER_78_225
*3798 FILLER_78_257
*3799 FILLER_78_289
*3800 FILLER_78_321
*3801 FILLER_78_353
*3802 FILLER_78_385
*3803 FILLER_78_417
*3804 FILLER_78_449
*3805 FILLER_78_481
*3806 FILLER_78_513
*3807 FILLER_78_545
*3808 FILLER_78_577
*3809 FILLER_78_609
*3810 FILLER_78_625
*3811 FILLER_78_629
*3812 FILLER_78_632
*3813 FILLER_78_664
*3814 FILLER_78_696
*3815 FILLER_78_728
*3816 FILLER_78_760
*3817 FILLER_78_792
*3818 FILLER_78_824
*3819 FILLER_79_1
*3820 FILLER_79_33
*3821 FILLER_79_65
*3822 FILLER_79_97
*3823 FILLER_79_129
*3824 FILLER_79_161
*3825 FILLER_79_193
*3826 FILLER_79_225
*3827 FILLER_79_257
*3828 FILLER_79_289
*3829 FILLER_79_321
*3830 FILLER_79_353
*3831 FILLER_79_385
*3832 FILLER_79_417
*3833 FILLER_79_449
*3834 FILLER_79_481
*3835 FILLER_79_513
*3836 FILLER_79_545
*3837 FILLER_79_577
*3838 FILLER_79_609
*3839 FILLER_79_641
*3840 FILLER_79_673
*3841 FILLER_79_705
*3842 FILLER_79_737
*3843 FILLER_79_769
*3844 FILLER_79_801
*3845 FILLER_79_833
*3846 FILLER_79_837
*3847 FILLER_79_839
*3848 FILLER_80_1
*3849 FILLER_80_33
*3850 FILLER_80_65
*3851 FILLER_80_97
*3852 FILLER_80_129
*3853 FILLER_80_161
*3854 FILLER_80_193
*3855 FILLER_80_225
*3856 FILLER_80_257
*3857 FILLER_80_289
*3858 FILLER_80_321
*3859 FILLER_80_353
*3860 FILLER_80_385
*3861 FILLER_80_417
*3862 FILLER_80_449
*3863 FILLER_80_481
*3864 FILLER_80_513
*3865 FILLER_80_545
*3866 FILLER_80_577
*3867 FILLER_80_609
*3868 FILLER_80_625
*3869 FILLER_80_629
*3870 FILLER_80_632
*3871 FILLER_80_664
*3872 FILLER_80_696
*3873 FILLER_80_728
*3874 FILLER_80_760
*3875 FILLER_80_792
*3876 FILLER_80_824
*3877 FILLER_81_1
*3878 FILLER_81_33
*3879 FILLER_81_65
*3880 FILLER_81_97
*3881 FILLER_81_129
*3882 FILLER_81_161
*3883 FILLER_81_193
*3884 FILLER_81_225
*3885 FILLER_81_257
*3886 FILLER_81_289
*3887 FILLER_81_321
*3888 FILLER_81_353
*3889 FILLER_81_385
*3890 FILLER_81_417
*3891 FILLER_81_449
*3892 FILLER_81_481
*3893 FILLER_81_513
*3894 FILLER_81_545
*3895 FILLER_81_577
*3896 FILLER_81_609
*3897 FILLER_81_641
*3898 FILLER_81_673
*3899 FILLER_81_705
*3900 FILLER_81_737
*3901 FILLER_81_769
*3902 FILLER_81_801
*3903 FILLER_81_833
*3904 FILLER_81_837
*3905 FILLER_81_839
*3906 FILLER_82_1
*3907 FILLER_82_33
*3908 FILLER_82_65
*3909 FILLER_82_97
*3910 FILLER_82_129
*3911 FILLER_82_161
*3912 FILLER_82_193
*3913 FILLER_82_225
*3914 FILLER_82_257
*3915 FILLER_82_289
*3916 FILLER_82_321
*3917 FILLER_82_353
*3918 FILLER_82_385
*3919 FILLER_82_417
*3920 FILLER_82_449
*3921 FILLER_82_481
*3922 FILLER_82_513
*3923 FILLER_82_545
*3924 FILLER_82_577
*3925 FILLER_82_609
*3926 FILLER_82_625
*3927 FILLER_82_629
*3928 FILLER_82_632
*3929 FILLER_82_664
*3930 FILLER_82_696
*3931 FILLER_82_728
*3932 FILLER_82_760
*3933 FILLER_82_792
*3934 FILLER_82_824
*3935 FILLER_83_1
*3936 FILLER_83_33
*3937 FILLER_83_65
*3938 FILLER_83_97
*3939 FILLER_83_129
*3940 FILLER_83_161
*3941 FILLER_83_193
*3942 FILLER_83_225
*3943 FILLER_83_257
*3944 FILLER_83_289
*3945 FILLER_83_321
*3946 FILLER_83_353
*3947 FILLER_83_385
*3948 FILLER_83_417
*3949 FILLER_83_449
*3950 FILLER_83_481
*3951 FILLER_83_513
*3952 FILLER_83_545
*3953 FILLER_83_577
*3954 FILLER_83_609
*3955 FILLER_83_641
*3956 FILLER_83_673
*3957 FILLER_83_705
*3958 FILLER_83_737
*3959 FILLER_83_769
*3960 FILLER_83_801
*3961 FILLER_83_833
*3962 FILLER_83_837
*3963 FILLER_83_839
*3964 FILLER_84_1
*3965 FILLER_84_33
*3966 FILLER_84_65
*3967 FILLER_84_97
*3968 FILLER_84_129
*3969 FILLER_84_161
*3970 FILLER_84_193
*3971 FILLER_84_225
*3972 FILLER_84_257
*3973 FILLER_84_289
*3974 FILLER_84_321
*3975 FILLER_84_353
*3976 FILLER_84_385
*3977 FILLER_84_417
*3978 FILLER_84_449
*3979 FILLER_84_481
*3980 FILLER_84_513
*3981 FILLER_84_545
*3982 FILLER_84_577
*3983 FILLER_84_609
*3984 FILLER_84_625
*3985 FILLER_84_629
*3986 FILLER_84_632
*3987 FILLER_84_664
*3988 FILLER_84_696
*3989 FILLER_84_728
*3990 FILLER_84_760
*3991 FILLER_84_792
*3992 FILLER_84_824
*3993 FILLER_85_1
*3994 FILLER_85_33
*3995 FILLER_85_65
*3996 FILLER_85_97
*3997 FILLER_85_129
*3998 FILLER_85_161
*3999 FILLER_85_193
*4000 FILLER_85_225
*4001 FILLER_85_257
*4002 FILLER_85_289
*4003 FILLER_85_321
*4004 FILLER_85_353
*4005 FILLER_85_385
*4006 FILLER_85_417
*4007 FILLER_85_449
*4008 FILLER_85_481
*4009 FILLER_85_513
*4010 FILLER_85_545
*4011 FILLER_85_577
*4012 FILLER_85_609
*4013 FILLER_85_641
*4014 FILLER_85_673
*4015 FILLER_85_705
*4016 FILLER_85_737
*4017 FILLER_85_769
*4018 FILLER_85_801
*4019 FILLER_85_833
*4020 FILLER_85_837
*4021 FILLER_85_839
*4022 FILLER_86_1
*4023 FILLER_86_33
*4024 FILLER_86_65
*4025 FILLER_86_97
*4026 FILLER_86_129
*4027 FILLER_86_161
*4028 FILLER_86_193
*4029 FILLER_86_225
*4030 FILLER_86_257
*4031 FILLER_86_289
*4032 FILLER_86_321
*4033 FILLER_86_353
*4034 FILLER_86_385
*4035 FILLER_86_417
*4036 FILLER_86_449
*4037 FILLER_86_481
*4038 FILLER_86_513
*4039 FILLER_86_545
*4040 FILLER_86_577
*4041 FILLER_86_609
*4042 FILLER_86_625
*4043 FILLER_86_629
*4044 FILLER_86_632
*4045 FILLER_86_664
*4046 FILLER_86_696
*4047 FILLER_86_728
*4048 FILLER_86_760
*4049 FILLER_86_792
*4050 FILLER_86_824
*4051 FILLER_87_1
*4052 FILLER_87_33
*4053 FILLER_87_65
*4054 FILLER_87_97
*4055 FILLER_87_129
*4056 FILLER_87_161
*4057 FILLER_87_193
*4058 FILLER_87_225
*4059 FILLER_87_257
*4060 FILLER_87_289
*4061 FILLER_87_321
*4062 FILLER_87_353
*4063 FILLER_87_385
*4064 FILLER_87_417
*4065 FILLER_87_449
*4066 FILLER_87_481
*4067 FILLER_87_513
*4068 FILLER_87_545
*4069 FILLER_87_577
*4070 FILLER_87_609
*4071 FILLER_87_641
*4072 FILLER_87_673
*4073 FILLER_87_705
*4074 FILLER_87_737
*4075 FILLER_87_769
*4076 FILLER_87_801
*4077 FILLER_87_833
*4078 FILLER_87_837
*4079 FILLER_87_839
*4080 FILLER_88_1
*4081 FILLER_88_33
*4082 FILLER_88_65
*4083 FILLER_88_97
*4084 FILLER_88_129
*4085 FILLER_88_161
*4086 FILLER_88_193
*4087 FILLER_88_225
*4088 FILLER_88_257
*4089 FILLER_88_289
*4090 FILLER_88_321
*4091 FILLER_88_353
*4092 FILLER_88_385
*4093 FILLER_88_417
*4094 FILLER_88_449
*4095 FILLER_88_481
*4096 FILLER_88_513
*4097 FILLER_88_545
*4098 FILLER_88_577
*4099 FILLER_88_609
*4100 FILLER_88_625
*4101 FILLER_88_629
*4102 FILLER_88_632
*4103 FILLER_88_664
*4104 FILLER_88_696
*4105 FILLER_88_728
*4106 FILLER_88_760
*4107 FILLER_88_792
*4108 FILLER_88_824
*4109 FILLER_89_1
*4110 FILLER_89_33
*4111 FILLER_89_65
*4112 FILLER_89_97
*4113 FILLER_89_129
*4114 FILLER_89_161
*4115 FILLER_89_193
*4116 FILLER_89_225
*4117 FILLER_89_257
*4118 FILLER_89_289
*4119 FILLER_89_321
*4120 FILLER_89_353
*4121 FILLER_89_385
*4122 FILLER_89_417
*4123 FILLER_89_449
*4124 FILLER_89_481
*4125 FILLER_89_513
*4126 FILLER_89_545
*4127 FILLER_89_577
*4128 FILLER_89_609
*4129 FILLER_89_641
*4130 FILLER_89_673
*4131 FILLER_89_705
*4132 FILLER_89_737
*4133 FILLER_89_769
*4134 FILLER_89_801
*4135 FILLER_89_833
*4136 FILLER_89_837
*4137 FILLER_89_839
*4138 FILLER_90_1
*4139 FILLER_90_33
*4140 FILLER_90_65
*4141 FILLER_90_97
*4142 FILLER_90_129
*4143 FILLER_90_161
*4144 FILLER_90_193
*4145 FILLER_90_225
*4146 FILLER_90_257
*4147 FILLER_90_289
*4148 FILLER_90_321
*4149 FILLER_90_353
*4150 FILLER_90_385
*4151 FILLER_90_417
*4152 FILLER_90_449
*4153 FILLER_90_481
*4154 FILLER_90_513
*4155 FILLER_90_545
*4156 FILLER_90_577
*4157 FILLER_90_609
*4158 FILLER_90_625
*4159 FILLER_90_629
*4160 FILLER_90_632
*4161 FILLER_90_664
*4162 FILLER_90_696
*4163 FILLER_90_728
*4164 FILLER_90_760
*4165 FILLER_90_792
*4166 FILLER_90_824
*4167 FILLER_91_1
*4168 FILLER_91_33
*4169 FILLER_91_65
*4170 FILLER_91_97
*4171 FILLER_91_129
*4172 FILLER_91_161
*4173 FILLER_91_193
*4174 FILLER_91_225
*4175 FILLER_91_257
*4176 FILLER_91_289
*4177 FILLER_91_321
*4178 FILLER_91_353
*4179 FILLER_91_385
*4180 FILLER_91_417
*4181 FILLER_91_449
*4182 FILLER_91_481
*4183 FILLER_91_513
*4184 FILLER_91_545
*4185 FILLER_91_577
*4186 FILLER_91_609
*4187 FILLER_91_641
*4188 FILLER_91_673
*4189 FILLER_91_705
*4190 FILLER_91_737
*4191 FILLER_91_769
*4192 FILLER_91_801
*4193 FILLER_91_833
*4194 FILLER_91_837
*4195 FILLER_91_839
*4196 FILLER_92_1
*4197 FILLER_92_33
*4198 FILLER_92_65
*4199 FILLER_92_97
*4200 FILLER_92_129
*4201 FILLER_92_161
*4202 FILLER_92_193
*4203 FILLER_92_225
*4204 FILLER_92_257
*4205 FILLER_92_289
*4206 FILLER_92_321
*4207 FILLER_92_353
*4208 FILLER_92_385
*4209 FILLER_92_417
*4210 FILLER_92_449
*4211 FILLER_92_481
*4212 FILLER_92_513
*4213 FILLER_92_545
*4214 FILLER_92_577
*4215 FILLER_92_609
*4216 FILLER_92_625
*4217 FILLER_92_629
*4218 FILLER_92_632
*4219 FILLER_92_664
*4220 FILLER_92_696
*4221 FILLER_92_728
*4222 FILLER_92_760
*4223 FILLER_92_792
*4224 FILLER_92_824
*4225 FILLER_93_1
*4226 FILLER_93_33
*4227 FILLER_93_65
*4228 FILLER_93_97
*4229 FILLER_93_129
*4230 FILLER_93_161
*4231 FILLER_93_193
*4232 FILLER_93_225
*4233 FILLER_93_257
*4234 FILLER_93_289
*4235 FILLER_93_321
*4236 FILLER_93_353
*4237 FILLER_93_385
*4238 FILLER_93_417
*4239 FILLER_93_449
*4240 FILLER_93_481
*4241 FILLER_93_513
*4242 FILLER_93_545
*4243 FILLER_93_577
*4244 FILLER_93_609
*4245 FILLER_93_641
*4246 FILLER_93_673
*4247 FILLER_93_705
*4248 FILLER_93_737
*4249 FILLER_93_769
*4250 FILLER_93_801
*4251 FILLER_93_833
*4252 FILLER_93_837
*4253 FILLER_93_839
*4254 FILLER_94_1
*4255 FILLER_94_33
*4256 FILLER_94_65
*4257 FILLER_94_97
*4258 FILLER_94_129
*4259 FILLER_94_161
*4260 FILLER_94_193
*4261 FILLER_94_225
*4262 FILLER_94_257
*4263 FILLER_94_289
*4264 FILLER_94_321
*4265 FILLER_94_353
*4266 FILLER_94_385
*4267 FILLER_94_417
*4268 FILLER_94_449
*4269 FILLER_94_481
*4270 FILLER_94_513
*4271 FILLER_94_545
*4272 FILLER_94_577
*4273 FILLER_94_609
*4274 FILLER_94_625
*4275 FILLER_94_629
*4276 FILLER_94_632
*4277 FILLER_94_664
*4278 FILLER_94_696
*4279 FILLER_94_728
*4280 FILLER_94_760
*4281 FILLER_94_792
*4282 FILLER_94_824
*4283 FILLER_95_1
*4284 FILLER_95_33
*4285 FILLER_95_65
*4286 FILLER_95_97
*4287 FILLER_95_129
*4288 FILLER_95_161
*4289 FILLER_95_193
*4290 FILLER_95_225
*4291 FILLER_95_257
*4292 FILLER_95_289
*4293 FILLER_95_321
*4294 FILLER_95_353
*4295 FILLER_95_385
*4296 FILLER_95_417
*4297 FILLER_95_449
*4298 FILLER_95_481
*4299 FILLER_95_513
*4300 FILLER_95_545
*4301 FILLER_95_577
*4302 FILLER_95_609
*4303 FILLER_95_641
*4304 FILLER_95_673
*4305 FILLER_95_705
*4306 FILLER_95_737
*4307 FILLER_95_769
*4308 FILLER_95_801
*4309 FILLER_95_833
*4310 FILLER_95_837
*4311 FILLER_95_839
*4312 FILLER_96_1
*4313 FILLER_96_33
*4314 FILLER_96_65
*4315 FILLER_96_97
*4316 FILLER_96_129
*4317 FILLER_96_161
*4318 FILLER_96_193
*4319 FILLER_96_225
*4320 FILLER_96_257
*4321 FILLER_96_289
*4322 FILLER_96_321
*4323 FILLER_96_353
*4324 FILLER_96_385
*4325 FILLER_96_417
*4326 FILLER_96_449
*4327 FILLER_96_481
*4328 FILLER_96_513
*4329 FILLER_96_545
*4330 FILLER_96_577
*4331 FILLER_96_609
*4332 FILLER_96_625
*4333 FILLER_96_629
*4334 FILLER_96_632
*4335 FILLER_96_664
*4336 FILLER_96_696
*4337 FILLER_96_728
*4338 FILLER_96_760
*4339 FILLER_96_792
*4340 FILLER_96_824
*4341 FILLER_97_1
*4342 FILLER_97_33
*4343 FILLER_97_65
*4344 FILLER_97_97
*4345 FILLER_97_129
*4346 FILLER_97_161
*4347 FILLER_97_193
*4348 FILLER_97_225
*4349 FILLER_97_257
*4350 FILLER_97_289
*4351 FILLER_97_321
*4352 FILLER_97_353
*4353 FILLER_97_385
*4354 FILLER_97_417
*4355 FILLER_97_449
*4356 FILLER_97_481
*4357 FILLER_97_513
*4358 FILLER_97_545
*4359 FILLER_97_577
*4360 FILLER_97_609
*4361 FILLER_97_641
*4362 FILLER_97_673
*4363 FILLER_97_705
*4364 FILLER_97_737
*4365 FILLER_97_769
*4366 FILLER_97_801
*4367 FILLER_97_833
*4368 FILLER_97_837
*4369 FILLER_97_839
*4370 FILLER_98_1
*4371 FILLER_98_33
*4372 FILLER_98_65
*4373 FILLER_98_97
*4374 FILLER_98_129
*4375 FILLER_98_161
*4376 FILLER_98_193
*4377 FILLER_98_225
*4378 FILLER_98_257
*4379 FILLER_98_289
*4380 FILLER_98_321
*4381 FILLER_98_353
*4382 FILLER_98_385
*4383 FILLER_98_417
*4384 FILLER_98_449
*4385 FILLER_98_481
*4386 FILLER_98_513
*4387 FILLER_98_545
*4388 FILLER_98_577
*4389 FILLER_98_609
*4390 FILLER_98_625
*4391 FILLER_98_629
*4392 FILLER_98_632
*4393 FILLER_98_664
*4394 FILLER_98_696
*4395 FILLER_98_728
*4396 FILLER_98_760
*4397 FILLER_98_792
*4398 FILLER_98_824
*4399 FILLER_99_1
*4400 FILLER_99_33
*4401 FILLER_99_65
*4402 FILLER_99_97
*4403 FILLER_99_129
*4404 FILLER_99_161
*4405 FILLER_99_193
*4406 FILLER_99_225
*4407 FILLER_99_257
*4408 FILLER_99_289
*4409 FILLER_99_321
*4410 FILLER_99_353
*4411 FILLER_99_385
*4412 FILLER_99_417
*4413 FILLER_99_449
*4414 FILLER_99_481
*4415 FILLER_99_513
*4416 FILLER_99_545
*4417 FILLER_99_577
*4418 FILLER_99_609
*4419 FILLER_99_641
*4420 FILLER_99_673
*4421 FILLER_99_705
*4422 FILLER_99_737
*4423 FILLER_99_769
*4424 FILLER_99_801
*4425 FILLER_99_833
*4426 FILLER_99_837
*4427 FILLER_99_839
*4428 FILLER_100_1
*4429 FILLER_100_33
*4430 FILLER_100_65
*4431 FILLER_100_97
*4432 FILLER_100_129
*4433 FILLER_100_161
*4434 FILLER_100_193
*4435 FILLER_100_225
*4436 FILLER_100_257
*4437 FILLER_100_289
*4438 FILLER_100_321
*4439 FILLER_100_353
*4440 FILLER_100_385
*4441 FILLER_100_417
*4442 FILLER_100_449
*4443 FILLER_100_481
*4444 FILLER_100_513
*4445 FILLER_100_545
*4446 FILLER_100_577
*4447 FILLER_100_609
*4448 FILLER_100_625
*4449 FILLER_100_629
*4450 FILLER_100_632
*4451 FILLER_100_664
*4452 FILLER_100_696
*4453 FILLER_100_728
*4454 FILLER_100_760
*4455 FILLER_100_792
*4456 FILLER_100_824
*4457 FILLER_101_1
*4458 FILLER_101_33
*4459 FILLER_101_65
*4460 FILLER_101_97
*4461 FILLER_101_129
*4462 FILLER_101_161
*4463 FILLER_101_193
*4464 FILLER_101_225
*4465 FILLER_101_257
*4466 FILLER_101_289
*4467 FILLER_101_321
*4468 FILLER_101_353
*4469 FILLER_101_385
*4470 FILLER_101_417
*4471 FILLER_101_449
*4472 FILLER_101_481
*4473 FILLER_101_513
*4474 FILLER_101_545
*4475 FILLER_101_577
*4476 FILLER_101_609
*4477 FILLER_101_641
*4478 FILLER_101_673
*4479 FILLER_101_705
*4480 FILLER_101_737
*4481 FILLER_101_769
*4482 FILLER_101_801
*4483 FILLER_101_833
*4484 FILLER_101_837
*4485 FILLER_101_839
*4486 FILLER_102_1
*4487 FILLER_102_33
*4488 FILLER_102_65
*4489 FILLER_102_97
*4490 FILLER_102_129
*4491 FILLER_102_161
*4492 FILLER_102_193
*4493 FILLER_102_225
*4494 FILLER_102_257
*4495 FILLER_102_289
*4496 FILLER_102_321
*4497 FILLER_102_353
*4498 FILLER_102_385
*4499 FILLER_102_417
*4500 FILLER_102_449
*4501 FILLER_102_481
*4502 FILLER_102_513
*4503 FILLER_102_545
*4504 FILLER_102_577
*4505 FILLER_102_609
*4506 FILLER_102_625
*4507 FILLER_102_629
*4508 FILLER_102_632
*4509 FILLER_102_664
*4510 FILLER_102_696
*4511 FILLER_102_728
*4512 FILLER_102_760
*4513 FILLER_102_792
*4514 FILLER_102_824
*4515 FILLER_103_1
*4516 FILLER_103_33
*4517 FILLER_103_65
*4518 FILLER_103_97
*4519 FILLER_103_129
*4520 FILLER_103_161
*4521 FILLER_103_193
*4522 FILLER_103_225
*4523 FILLER_103_257
*4524 FILLER_103_289
*4525 FILLER_103_321
*4526 FILLER_103_353
*4527 FILLER_103_385
*4528 FILLER_103_417
*4529 FILLER_103_449
*4530 FILLER_103_481
*4531 FILLER_103_513
*4532 FILLER_103_545
*4533 FILLER_103_577
*4534 FILLER_103_609
*4535 FILLER_103_641
*4536 FILLER_103_673
*4537 FILLER_103_705
*4538 FILLER_103_737
*4539 FILLER_103_769
*4540 FILLER_103_801
*4541 FILLER_103_833
*4542 FILLER_103_837
*4543 FILLER_103_839
*4544 FILLER_104_1
*4545 FILLER_104_33
*4546 FILLER_104_65
*4547 FILLER_104_97
*4548 FILLER_104_129
*4549 FILLER_104_161
*4550 FILLER_104_193
*4551 FILLER_104_225
*4552 FILLER_104_257
*4553 FILLER_104_289
*4554 FILLER_104_321
*4555 FILLER_104_353
*4556 FILLER_104_385
*4557 FILLER_104_417
*4558 FILLER_104_449
*4559 FILLER_104_481
*4560 FILLER_104_513
*4561 FILLER_104_545
*4562 FILLER_104_577
*4563 FILLER_104_609
*4564 FILLER_104_625
*4565 FILLER_104_629
*4566 FILLER_104_632
*4567 FILLER_104_664
*4568 FILLER_104_696
*4569 FILLER_104_728
*4570 FILLER_104_760
*4571 FILLER_104_792
*4572 FILLER_104_824
*4573 FILLER_105_1
*4574 FILLER_105_33
*4575 FILLER_105_65
*4576 FILLER_105_97
*4577 FILLER_105_129
*4578 FILLER_105_161
*4579 FILLER_105_193
*4580 FILLER_105_225
*4581 FILLER_105_257
*4582 FILLER_105_289
*4583 FILLER_105_321
*4584 FILLER_105_353
*4585 FILLER_105_385
*4586 FILLER_105_417
*4587 FILLER_105_449
*4588 FILLER_105_481
*4589 FILLER_105_513
*4590 FILLER_105_545
*4591 FILLER_105_577
*4592 FILLER_105_609
*4593 FILLER_105_641
*4594 FILLER_105_673
*4595 FILLER_105_705
*4596 FILLER_105_737
*4597 FILLER_105_769
*4598 FILLER_105_801
*4599 FILLER_105_833
*4600 FILLER_105_837
*4601 FILLER_105_839
*4602 FILLER_106_1
*4603 FILLER_106_33
*4604 FILLER_106_65
*4605 FILLER_106_97
*4606 FILLER_106_129
*4607 FILLER_106_161
*4608 FILLER_106_193
*4609 FILLER_106_225
*4610 FILLER_106_257
*4611 FILLER_106_289
*4612 FILLER_106_321
*4613 FILLER_106_353
*4614 FILLER_106_385
*4615 FILLER_106_417
*4616 FILLER_106_449
*4617 FILLER_106_481
*4618 FILLER_106_513
*4619 FILLER_106_545
*4620 FILLER_106_577
*4621 FILLER_106_609
*4622 FILLER_106_625
*4623 FILLER_106_629
*4624 FILLER_106_632
*4625 FILLER_106_664
*4626 FILLER_106_696
*4627 FILLER_106_728
*4628 FILLER_106_760
*4629 FILLER_106_792
*4630 FILLER_106_824
*4631 FILLER_107_1
*4632 FILLER_107_33
*4633 FILLER_107_65
*4634 FILLER_107_97
*4635 FILLER_107_129
*4636 FILLER_107_161
*4637 FILLER_107_193
*4638 FILLER_107_225
*4639 FILLER_107_257
*4640 FILLER_107_289
*4641 FILLER_107_321
*4642 FILLER_107_353
*4643 FILLER_107_385
*4644 FILLER_107_417
*4645 FILLER_107_449
*4646 FILLER_107_481
*4647 FILLER_107_513
*4648 FILLER_107_545
*4649 FILLER_107_577
*4650 FILLER_107_609
*4651 FILLER_107_641
*4652 FILLER_107_673
*4653 FILLER_107_705
*4654 FILLER_107_737
*4655 FILLER_107_769
*4656 FILLER_107_801
*4657 FILLER_107_833
*4658 FILLER_107_837
*4659 FILLER_107_839
*4660 FILLER_108_1
*4661 FILLER_108_33
*4662 FILLER_108_65
*4663 FILLER_108_97
*4664 FILLER_108_129
*4665 FILLER_108_161
*4666 FILLER_108_193
*4667 FILLER_108_225
*4668 FILLER_108_257
*4669 FILLER_108_289
*4670 FILLER_108_321
*4671 FILLER_108_353
*4672 FILLER_108_385
*4673 FILLER_108_417
*4674 FILLER_108_449
*4675 FILLER_108_481
*4676 FILLER_108_513
*4677 FILLER_108_545
*4678 FILLER_108_577
*4679 FILLER_108_609
*4680 FILLER_108_625
*4681 FILLER_108_629
*4682 FILLER_108_632
*4683 FILLER_108_664
*4684 FILLER_108_696
*4685 FILLER_108_728
*4686 FILLER_108_760
*4687 FILLER_108_792
*4688 FILLER_108_824
*4689 FILLER_109_1
*4690 FILLER_109_33
*4691 FILLER_109_65
*4692 FILLER_109_97
*4693 FILLER_109_129
*4694 FILLER_109_161
*4695 FILLER_109_193
*4696 FILLER_109_225
*4697 FILLER_109_257
*4698 FILLER_109_289
*4699 FILLER_109_321
*4700 FILLER_109_353
*4701 FILLER_109_385
*4702 FILLER_109_417
*4703 FILLER_109_449
*4704 FILLER_109_481
*4705 FILLER_109_513
*4706 FILLER_109_545
*4707 FILLER_109_577
*4708 FILLER_109_609
*4709 FILLER_109_641
*4710 FILLER_109_673
*4711 FILLER_109_705
*4712 FILLER_109_737
*4713 FILLER_109_769
*4714 FILLER_109_801
*4715 FILLER_109_833
*4716 FILLER_109_837
*4717 FILLER_109_839
*4718 FILLER_110_1
*4719 FILLER_110_33
*4720 FILLER_110_65
*4721 FILLER_110_97
*4722 FILLER_110_129
*4723 FILLER_110_161
*4724 FILLER_110_193
*4725 FILLER_110_225
*4726 FILLER_110_257
*4727 FILLER_110_289
*4728 FILLER_110_321
*4729 FILLER_110_353
*4730 FILLER_110_385
*4731 FILLER_110_417
*4732 FILLER_110_449
*4733 FILLER_110_481
*4734 FILLER_110_513
*4735 FILLER_110_545
*4736 FILLER_110_577
*4737 FILLER_110_609
*4738 FILLER_110_625
*4739 FILLER_110_629
*4740 FILLER_110_632
*4741 FILLER_110_664
*4742 FILLER_110_696
*4743 FILLER_110_728
*4744 FILLER_110_760
*4745 FILLER_110_792
*4746 FILLER_110_824
*4747 FILLER_111_1
*4748 FILLER_111_33
*4749 FILLER_111_65
*4750 FILLER_111_97
*4751 FILLER_111_129
*4752 FILLER_111_161
*4753 FILLER_111_193
*4754 FILLER_111_225
*4755 FILLER_111_257
*4756 FILLER_111_289
*4757 FILLER_111_321
*4758 FILLER_111_353
*4759 FILLER_111_385
*4760 FILLER_111_417
*4761 FILLER_111_449
*4762 FILLER_111_481
*4763 FILLER_111_513
*4764 FILLER_111_545
*4765 FILLER_111_577
*4766 FILLER_111_609
*4767 FILLER_111_641
*4768 FILLER_111_673
*4769 FILLER_111_705
*4770 FILLER_111_737
*4771 FILLER_111_769
*4772 FILLER_111_801
*4773 FILLER_111_833
*4774 FILLER_111_837
*4775 FILLER_111_839
*4776 FILLER_112_1
*4777 FILLER_112_33
*4778 FILLER_112_65
*4779 FILLER_112_97
*4780 FILLER_112_129
*4781 FILLER_112_161
*4782 FILLER_112_193
*4783 FILLER_112_225
*4784 FILLER_112_257
*4785 FILLER_112_289
*4786 FILLER_112_321
*4787 FILLER_112_353
*4788 FILLER_112_385
*4789 FILLER_112_417
*4790 FILLER_112_449
*4791 FILLER_112_481
*4792 FILLER_112_513
*4793 FILLER_112_545
*4794 FILLER_112_577
*4795 FILLER_112_609
*4796 FILLER_112_625
*4797 FILLER_112_629
*4798 FILLER_112_632
*4799 FILLER_112_664
*4800 FILLER_112_696
*4801 FILLER_112_728
*4802 FILLER_112_760
*4803 FILLER_112_792
*4804 FILLER_112_824

*PORTS
A[0] I
A[1] I
A[2] I
A[3] I
A[4] I
A[5] I
A[6] I
A[7] I
B[0] I
B[1] I
B[2] I
B[3] I
B[4] I
B[5] I
B[6] I
B[7] I
carry_out O
result[0] O
result[1] O
result[2] O
result[3] O
result[4] O
result[5] O
result[6] O
result[7] O
zero O
opcode[0] I
opcode[1] I
opcode[2] I

*D_NET *1 0.012471
*CONN
*P A[0] I
*I *399:C2 I *D AOI221_X1
*I *554:A1 I *D AOI22_X1
*I *621:C1 I *D AOI221_X1
*I *563:A1 I *D AND2_X1
*I *565:B2 I *D OAI21_X1
*I *396:A I *D XOR2_X1
*I *442:A I *D XNOR2_X1
*I *441:A1 I *D NAND2_X1
*CAP
1 A[0] 8.10563e-06
2 *399:C2 0
3 *554:A1 0.000276274
4 *621:C1 6.85986e-06
5 *563:A1 0
6 *565:B2 0
7 *396:A 1.25134e-05
8 *442:A 0
9 *441:A1 3.51219e-05
10 *1:92 0.000732181
11 *1:90 0.0010222
12 *1:77 0.000348537
13 *1:70 0.000128899
14 *1:64 0.000586672
15 *1:54 0.000282743
16 *1:37 0.000357972
17 *1:26 0.000303976
18 *1:13 0.00273067
19 *1:11 0.00268744
20 *1:9 0.000714815
21 *1:7 0.000722921
22 *396:A *395:B 2.40955e-06
23 *396:A *399:B2 0
24 *441:A1 *383:A 0
25 *441:A1 *440:B 0.00012041
26 *441:A1 *562:A 1.22474e-05
27 *441:A1 *84:10 0
28 *554:A1 *554:A2 2.39679e-06
29 *554:A1 *554:B1 2.52965e-06
30 *554:A1 *568:C1 0
31 *554:A1 *117:10 5.6451e-05
32 *554:A1 *354:52 7.43825e-05
33 *621:C1 *621:A 2.16072e-07
34 *621:C1 *621:B1 9.57492e-07
35 *621:C1 *117:47 1.40196e-06
36 *1:13 *440:A 0
37 *1:13 *9:5 0
38 *1:37 *395:B 8.14738e-05
39 *1:37 *562:A 0
40 *1:37 *84:10 5.74951e-06
41 *1:54 *397:A2 1.28122e-06
42 *1:54 *399:A 2.75346e-06
43 *1:54 *399:C1 1.77697e-05
44 *1:54 *38:8 1.40196e-05
45 *1:64 *399:A 0
46 *1:64 *399:C1 2.16072e-07
47 *1:64 *568:B1 0
48 *1:64 *41:8 2.01142e-05
49 *1:64 *143:25 1.58933e-05
50 *1:64 *204:10 4.01289e-05
51 *1:70 *565:A 2.37916e-06
52 *1:70 *567:A1 2.01395e-05
53 *1:70 *568:B2 0.000144641
54 *1:70 *568:C1 0
55 *1:70 *9:46 4.6883e-05
56 *1:70 *117:10 1.91865e-05
57 *1:77 *563:A2 2.27375e-05
58 *1:77 *565:A 0
59 *1:77 *9:46 1.21774e-06
60 *1:90 *514:B1 0.000104905
61 *1:90 *544:A1 0
62 *1:90 *563:A2 1.21774e-06
63 *1:90 *564:B1 0
64 *1:90 *565:A 0
65 *1:90 *566:B2 2.74618e-05
66 *1:90 *566:C1 6.53753e-05
67 *1:90 *566:C2 6.05817e-05
68 *1:90 *567:A2 0
69 *1:90 *70:67 0
70 *1:90 *143:10 0
71 *1:90 *199:8 1.43813e-05
72 *1:92 *385:A 0.000120408
73 *1:92 *497:B 0.000157953
74 *1:92 *501:A2 0
75 *1:92 *619:A1 0
76 *1:92 *8:48 1.14365e-05
77 *1:92 *116:23 4.15972e-05
78 *1:92 *116:42 1.41881e-05
79 *1:92 *116:44 0
80 *1:92 *116:55 0
81 *1:92 *123:72 2.99364e-05
82 *1:92 *143:10 0.000133653
*RES
1 A[0] *1:7 5.75 
2 *1:7 *1:9 81 
3 *1:9 *1:11 5 
4 *1:11 *1:13 272.25 
5 *1:13 *441:A1 21.3571 
6 *1:13 *1:26 0.75 
7 *1:26 *442:A 5 
8 *1:26 *1:37 39.8214 
9 *1:37 *396:A 11.4643 
10 *1:37 *1:54 11.5714 
11 *1:54 *1:64 42.3929 
12 *1:64 *1:70 18.0357 
13 *1:70 *565:B2 5 
14 *1:70 *1:77 5.75 
15 *1:77 *563:A1 5 
16 *1:77 *1:90 41.1072 
17 *1:90 *1:92 90.5 
18 *1:92 *621:C1 10.75 
19 *1:64 *554:A1 44.4643 
20 *1:54 *399:C2 5 
*END

*D_NET *2 0.00892312
*CONN
*P A[1] I
*I *401:A I *D XNOR2_X1
*I *382:A I *D INV_X1
*I *555:A1 I *D OR2_X1
*I *545:A1 I *D NAND2_X1
*I *566:C2 I *D AOI222_X1
*I *553:A1 I *D NAND2_X1
*I *446:A1 I *D AND2_X1
*CAP
1 A[1] 0.000814261
2 *401:A 0
3 *382:A 4.68039e-05
4 *555:A1 0
5 *545:A1 4.94672e-05
6 *566:C2 9.82949e-05
7 *553:A1 1.97848e-05
8 *446:A1 7.8313e-06
9 *2:57 0.000329997
10 *2:55 0.000257039
11 *2:36 0.000275743
12 *2:34 0.000386655
13 *2:23 0.00028568
14 *2:11 0.000177148
15 *2:9 0.00168483
16 *2:7 0.00163338
17 *2:5 0.000820806
18 *382:A *403:A 0
19 *382:A *404:B2 8.43215e-07
20 *382:A *404:C2 1.98123e-05
21 *382:A *447:A 1.39467e-05
22 *382:A *447:B 0
23 *382:A *89:10 0
24 *446:A1 *446:A2 2.39679e-06
25 *446:A1 *450:B1 6.38328e-07
26 *545:A1 *545:A2 5.52959e-06
27 *545:A1 *566:A2 0
28 *545:A1 *143:25 0
29 *553:A1 *555:A2 3.09411e-06
30 *553:A1 *10:32 4.05299e-05
31 *566:C2 *564:A 2.16072e-07
32 *566:C2 *564:B1 1.11799e-05
33 *566:C2 *132:34 2.89018e-05
34 *566:C2 *132:45 0.000127576
35 *2:9 *400:B 0
36 *2:9 *402:A1 0.000127798
37 *2:9 *404:C1 4.12911e-06
38 *2:9 *42:10 2.41394e-05
39 *2:11 *402:A1 1.04526e-05
40 *2:11 *404:A 0.000165919
41 *2:11 *404:C1 2.72417e-06
42 *2:23 *404:A 2.2464e-05
43 *2:23 *404:B2 3.4802e-05
44 *2:23 *446:A2 6.62646e-05
45 *2:23 *447:A 0
46 *2:23 *450:A 4.24402e-05
47 *2:23 *549:B 0.000115884
48 *2:23 *559:B1 2.35012e-05
49 *2:23 *45:10 3.22858e-06
50 *2:34 *445:A 0
51 *2:34 *454:A 4.79202e-06
52 *2:34 *549:B 0
53 *2:34 *10:28 0
54 *2:34 *87:6 0
55 *2:34 *92:8 0
56 *2:36 *455:B2 0
57 *2:36 *10:32 0.00052592
58 *2:36 *91:27 0
59 *2:55 *555:A2 0
60 *2:55 *558:A 5.50748e-05
61 *2:55 *185:20 2.27053e-06
62 *2:55 *190:14 6.97673e-06
63 *2:57 *547:C2 7.61408e-05
64 *2:57 *557:C2 0
65 *2:57 *132:45 0.000404959
66 *2:57 *185:20 2.77917e-07
67 *2:57 *190:14 0
68 *1:90 *566:C2 6.05817e-05
*RES
1 A[1] *2:5 93.3929 
2 *2:5 *2:7 0.75 
3 *2:7 *2:9 190.589 
4 *2:9 *2:11 9.46429 
5 *2:11 *2:23 20.4286 
6 *2:23 *446:A1 5.75 
7 *2:23 *2:34 25.25 
8 *2:34 *2:36 28.0714 
9 *2:36 *553:A1 13.0357 
10 *2:36 *2:55 18.8929 
11 *2:55 *2:57 28.0714 
12 *2:57 *566:C2 24.1429 
13 *2:57 *545:A1 14.75 
14 *2:55 *555:A1 10 
15 *2:11 *382:A 15.7143 
16 *2:9 *401:A 10 
*END

*D_NET *3 0.00949158
*CONN
*P A[2] I
*I *407:A I *D XNOR2_X1
*I *381:A I *D INV_X1
*I *452:A I *D XNOR2_X1
*I *535:A1 I *D AOI222_X1
*I *543:C1 I *D OAI211_X1
*I *544:A1 I *D NAND3_X1
*I *542:A1 I *D NAND3_X1
*I *554:B2 I *D AOI22_X1
*CAP
1 A[2] 0.000813864
2 *407:A 0
3 *381:A 0
4 *452:A 0
5 *535:A1 0.000103984
6 *543:C1 5.17015e-06
7 *544:A1 4.27682e-05
8 *542:A1 1.3916e-05
9 *554:B2 0.000116973
10 *3:52 6.57874e-05
11 *3:50 8.66281e-05
12 *3:37 0.000224939
13 *3:33 0.000366279
14 *3:29 0.000356171
15 *3:19 0.000246352
16 *3:11 0.000116865
17 *3:9 0.00157034
18 *3:7 0.00158125
19 *3:5 0.000824773
20 *535:A1 *527:C2 1.21774e-06
21 *535:A1 *556:C2 7.01728e-05
22 *535:A1 *354:42 0.000100822
23 *535:A1 *357:66 2.89193e-05
24 *542:A1 *514:A 1.40196e-06
25 *542:A1 *542:A2 3.02372e-05
26 *542:A1 *11:32 1.72405e-05
27 *542:A1 *142:36 4.26902e-05
28 *543:C1 *543:A 7.19036e-06
29 *543:C1 *543:B 7.19036e-06
30 *544:A1 *543:B 7.21335e-06
31 *544:A1 *544:A2 2.88151e-05
32 *544:A1 *544:A3 4.20755e-07
33 *544:A1 *546:A1 0
34 *544:A1 *546:A2 0
35 *544:A1 *546:A3 2.75346e-06
36 *554:B2 *554:A2 1.60038e-06
37 *554:B2 *554:B1 7.19036e-06
38 *554:B2 *557:A 1.13064e-05
39 *554:B2 *557:C1 0.000102065
40 *554:B2 *557:C2 7.72792e-06
41 *3:5 *4:11 1.60795e-06
42 *3:5 *11:5 0
43 *3:9 *408:A1 8.33759e-07
44 *3:9 *411:B 4.24381e-05
45 *3:9 *11:9 0
46 *3:9 *11:19 0
47 *3:9 *47:10 1.95448e-05
48 *3:19 *406:A1 0.000145716
49 *3:19 *408:A1 1.74934e-05
50 *3:19 *408:A2 4.79372e-06
51 *3:19 *409:B 2.37093e-06
52 *3:19 *411:A 2.56243e-06
53 *3:19 *456:B2 1.2453e-05
54 *3:19 *11:19 3.01447e-05
55 *3:29 *452:B 0.00012095
56 *3:29 *456:A 9.36313e-05
57 *3:29 *456:B1 9.04209e-05
58 *3:29 *456:B2 0.000182888
59 *3:29 *11:19 6.41517e-06
60 *3:29 *11:30 0.000107663
61 *3:33 *547:C1 0
62 *3:33 *11:30 0.00067176
63 *3:37 *547:A 0
64 *3:37 *547:B2 0
65 *3:37 *11:30 7.85075e-05
66 *3:50 *557:C1 1.19839e-05
67 *3:50 *11:30 0.000372891
68 *3:50 *142:36 1.66988e-05
69 *3:50 *142:49 0.000361481
70 *3:52 *11:30 2.94435e-05
71 *3:52 *11:32 1.27467e-05
72 *3:52 *142:36 4.18985e-05
73 *1:90 *544:A1 0
*RES
1 A[2] *3:5 93.3929 
2 *3:5 *3:7 1.25 
3 *3:7 *3:9 179.054 
4 *3:9 *3:11 5 
5 *3:11 *3:19 20.6071 
6 *3:19 *3:29 29.8929 
7 *3:29 *3:33 40.5357 
8 *3:33 *3:37 9.32143 
9 *3:37 *554:B2 19.25 
10 *3:37 *3:50 26.1786 
11 *3:50 *3:52 2.28572 
12 *3:52 *542:A1 13.0357 
13 *3:52 *544:A1 15.25 
14 *3:50 *543:C1 10.75 
15 *3:33 *535:A1 26.25 
16 *3:29 *452:A 5 
17 *3:19 *381:A 10 
18 *3:11 *407:A 5 
*END

*D_NET *4 0.00861092
*CONN
*P A[3] I
*I *380:A I *D INV_X1
*I *459:A I *D XNOR2_X1
*I *532:A1 I *D NAND2_X1
*I *533:A1 I *D OR2_X1
*I *547:C1 I *D AOI221_X1
*I *527:C1 I *D AOI221_X1
*I *413:A I *D XNOR2_X1
*CAP
1 A[3] 0.000279164
2 *380:A 8.10055e-06
3 *459:A 0
4 *532:A1 9.87601e-05
5 *533:A1 0
6 *547:C1 0.000305282
7 *527:C1 8.40602e-05
8 *413:A 0
9 *4:59 0.000451964
10 *4:42 0.000284895
11 *4:40 0.000418385
12 *4:36 0.000344029
13 *4:30 0.000203795
14 *4:15 0.000117139
15 *4:13 0.00241437
16 *4:11 0.00269353
17 *380:A *58:6 0
18 *527:C1 *522:A2 0
19 *527:C1 *523:A1 2.16072e-07
20 *527:C1 *524:B 2.31008e-05
21 *527:C1 *527:A 2.14394e-06
22 *527:C1 *527:C2 8.15769e-06
23 *527:C1 *528:A 7.72537e-06
24 *527:C1 *13:45 0
25 *532:A1 *532:A2 4.77786e-06
26 *532:A1 *256:14 0
27 *547:C1 *533:A2 2.39679e-06
28 *547:C1 *556:A 1.48912e-05
29 *547:C1 *142:72 2.97424e-05
30 *547:C1 *194:16 0
31 *4:11 *11:5 5.79362e-06
32 *4:13 *12:13 0
33 *4:13 *57:10 3.65597e-06
34 *4:30 *413:B 6.77912e-05
35 *4:30 *414:A1 1.21497e-05
36 *4:30 *414:A2 6.58981e-05
37 *4:30 *415:A 3.70376e-05
38 *4:30 *416:B1 0
39 *4:30 *416:C1 0
40 *4:30 *457:B 0.000199989
41 *4:30 *12:26 5.4579e-05
42 *4:30 *58:6 0
43 *4:36 *457:B 0.000147729
44 *4:36 *459:B 2.35942e-05
45 *4:36 *463:A 5.52692e-06
46 *4:36 *12:26 6.06697e-05
47 *4:36 *12:34 1.14365e-05
48 *4:36 *99:8 9.55318e-06
49 *4:36 *101:10 2.94435e-05
50 *4:40 *460:B 1.16042e-05
51 *4:40 *463:B2 0
52 *4:40 *101:10 7.47756e-06
53 *4:40 *105:12 3.74224e-05
54 *4:42 *5:46 0
55 *4:42 *13:45 0
56 *4:59 *524:A 0
57 *4:59 *524:B 0
58 *4:59 *533:A2 1.25215e-05
59 *4:59 *142:72 8.80829e-06
60 *3:5 *4:11 1.60795e-06
61 *3:33 *547:C1 0
*RES
1 A[3] *4:11 39.6964 
2 *4:11 *4:13 274.393 
3 *4:13 *4:15 5 
4 *4:15 *413:A 5 
5 *4:15 *4:30 26.5357 
6 *4:30 *4:36 20.0714 
7 *4:36 *4:40 35.1072 
8 *4:40 *4:42 5.67857 
9 *4:42 *527:C1 18.8214 
10 *4:42 *4:59 21.25 
11 *4:59 *547:C1 45.4286 
12 *4:59 *533:A1 5 
13 *4:40 *532:A1 26.25 
14 *4:36 *459:A 5 
15 *4:30 *380:A 10.75 
*END

*D_NET *5 0.00897979
*CONN
*P A[4] I
*I *523:A1 I *D OR2_X1
*I *522:A1 I *D NAND2_X1
*I *516:A1 I *D AOI22_X1
*I *535:C2 I *D AOI222_X1
*I *437:A I *D XNOR2_X1
*I *392:A I *D XNOR2_X1
*I *379:A I *D INV_X1
*CAP
1 A[4] 0.00273955
2 *523:A1 9.07379e-06
3 *522:A1 0
4 *516:A1 0.000174041
5 *535:C2 0.000120503
6 *437:A 1.24746e-05
7 *392:A 0
8 *379:A 7.29203e-05
9 *5:62 0.000408794
10 *5:52 0.000175881
11 *5:46 0.000340772
12 *5:31 0.000476598
13 *5:13 0.000133155
14 *5:9 0.000336023
15 *5:5 0.00282128
16 *379:A *391:A2 4.31719e-05
17 *379:A *417:A 4.32144e-07
18 *379:A *417:B 2.87703e-06
19 *379:A *417:C2 5.96901e-05
20 *379:A *465:B2 6.44569e-06
21 *379:A *519:A 1.60038e-06
22 *379:A *13:22 0
23 *437:A *13:41 7.72537e-06
24 *516:A1 *516:A2 4.12911e-06
25 *516:A1 *535:C1 9.52324e-06
26 *535:C2 *535:C1 6.267e-05
27 *5:5 *13:5 0
28 *5:13 *393:A1 9.05985e-05
29 *5:13 *393:A2 5.48248e-05
30 *5:13 *417:B 2.48022e-05
31 *5:31 *391:A1 7.87811e-06
32 *5:31 *438:A2 0
33 *5:31 *439:B 0
34 *5:31 *465:B1 1.32348e-05
35 *5:31 *13:22 0
36 *5:31 *13:41 2.16072e-07
37 *5:31 *78:8 8.60819e-05
38 *5:46 *439:B 0
39 *5:46 *521:A2 0
40 *5:46 *522:A2 1.17192e-05
41 *5:46 *624:A1 7.34533e-06
42 *5:46 *13:41 0.000245051
43 *5:46 *13:45 0.000107525
44 *5:46 *256:14 0
45 *5:46 *257:8 6.58215e-06
46 *5:52 *522:A2 0.000140243
47 *5:52 *527:B2 2.16072e-07
48 *5:52 *257:8 7.35309e-06
49 *5:62 *525:A1 7.19036e-06
50 *5:62 *525:A2 6.85774e-07
51 *5:62 *526:B 2.43341e-06
52 *5:62 *527:B1 0.000113537
53 *5:62 *527:B2 4.77617e-06
54 *5:62 *535:C1 1.59636e-05
55 *5:62 *162:10 1.19839e-05
56 *527:C1 *523:A1 2.16072e-07
57 *4:42 *5:46 0
*RES
1 A[4] *5:5 277.536 
2 *5:5 *5:9 14.0714 
3 *5:9 *5:13 14.0714 
4 *5:13 *379:A 14.75 
5 *5:13 *392:A 5 
6 *5:9 *5:31 26.6786 
7 *5:31 *437:A 6.67857 
8 *5:31 *5:46 40.7857 
9 *5:46 *5:52 13.4643 
10 *5:52 *5:62 23.9643 
11 *5:62 *535:C2 19.25 
12 *5:62 *516:A1 34.9286 
13 *5:52 *522:A1 5 
14 *5:46 *523:A1 10.75 
*END

*D_NET *6 0.00923941
*CONN
*P A[5] I
*I *378:A I *D INV_X1
*I *433:A I *D XNOR2_X1
*I *525:A1 I *D NAND2_X1
*I *513:A1 I *D OR2_X1
*I *512:A1 I *D AND2_X1
*I *505:A1 I *D AOI22_X1
*I *387:A I *D XNOR2_X1
*CAP
1 A[5] 0.00263731
2 *378:A 0
3 *433:A 1.12743e-05
4 *525:A1 0.000137438
5 *513:A1 4.62305e-06
6 *512:A1 6.72905e-06
7 *505:A1 0.000225932
8 *387:A 3.23851e-05
9 *6:70 0.000198416
10 *6:55 0.00010121
11 *6:36 0.000553753
12 *6:34 0.000432077
13 *6:30 0.000293892
14 *6:9 0.000414943
15 *6:5 0.00285708
16 *387:A *387:B 4.32298e-05
17 *387:A *28:10 2.51997e-05
18 *433:A *75:8 1.91498e-06
19 *505:A1 *504:A1 0
20 *505:A1 *504:A2 4.12796e-06
21 *505:A1 *505:B1 1.68643e-06
22 *505:A1 *506:A3 1.39539e-05
23 *505:A1 *515:B2 0
24 *505:A1 *516:A2 0.000366835
25 *505:A1 *355:16 0
26 *505:A1 *355:27 0
27 *505:A1 *356:30 0
28 *512:A1 *517:A2 3.23723e-07
29 *512:A1 *14:21 2.75346e-06
30 *512:A1 *355:27 2.52965e-06
31 *513:A1 *513:A2 7.19036e-06
32 *513:A1 *517:A3 7.72792e-06
33 *525:A1 *515:B1 4.24402e-05
34 *525:A1 *525:A2 1.21774e-06
35 *525:A1 *526:B 1.72405e-05
36 *525:A1 *527:B2 0
37 *525:A1 *535:C1 0
38 *525:A1 *7:66 2.94455e-05
39 *525:A1 *356:43 0.000121031
40 *6:5 *386:B 0
41 *6:9 *14:9 0
42 *6:9 *14:15 0
43 *6:9 *28:10 5.56848e-05
44 *6:30 *389:A 2.17974e-05
45 *6:30 *418:A 4.16143e-05
46 *6:30 *418:B2 5.01004e-05
47 *6:30 *418:C1 1.46756e-05
48 *6:30 *509:A 0
49 *6:30 *7:13 0
50 *6:30 *14:15 5.98684e-05
51 *6:30 *28:10 4.79202e-06
52 *6:30 *31:10 1.68643e-06
53 *6:34 *389:A 3.82525e-05
54 *6:34 *418:B2 1.37673e-05
55 *6:34 *418:C2 2.14856e-06
56 *6:34 *432:A1 1.6048e-05
57 *6:34 *433:B 5.01336e-06
58 *6:34 *467:A 2.00179e-05
59 *6:34 *20:8 7.63212e-06
60 *6:34 *75:8 0
61 *6:36 *434:A 0
62 *6:36 *518:B1 2.77232e-05
63 *6:36 *518:B2 5.50692e-06
64 *6:36 *14:21 0
65 *6:36 *71:31 3.90891e-05
66 *6:36 *75:8 0
67 *6:55 *7:68 0
68 *6:55 *257:8 0
69 *6:55 *355:27 6.86795e-05
70 *6:70 *513:A2 0.000105476
71 *6:70 *517:A3 3.56223e-05
72 *6:70 *7:66 1.1144e-06
73 *6:70 *7:68 0
74 *6:70 *257:8 0
75 *5:62 *525:A1 7.19036e-06
*RES
1 A[5] *6:5 267.536 
2 *6:5 *6:9 29.6786 
3 *6:9 *387:A 14.3214 
4 *6:9 *6:30 35.8572 
5 *6:30 *6:34 16.6786 
6 *6:34 *6:36 30.75 
7 *6:36 *505:A1 44.75 
8 *6:36 *6:55 10 
9 *6:55 *512:A1 10.75 
10 *6:55 *6:70 13.0714 
11 *6:70 *513:A1 5.75 
12 *6:70 *525:A1 35.6786 
13 *6:34 *433:A 6.67857 
14 *6:30 *378:A 5 
*END

*D_NET *7 0.0101845
*CONN
*P A[6] I
*I *515:A1 I *D AOI222_X1
*I *504:A1 I *D NAND3_X1
*I *592:A1 I *D AOI22_X1
*I *503:A1 I *D OAI22_X1
*I *502:B2 I *D AOI21_X1
*I *470:A I *D XNOR2_X1
*I *421:A I *D XNOR2_X1
*I *377:A I *D INV_X1
*CAP
1 A[6] 6.32841e-05
2 *515:A1 6.09993e-06
3 *504:A1 7.8328e-05
4 *592:A1 3.72526e-05
5 *503:A1 0
6 *502:B2 6.94754e-05
7 *470:A 4.5242e-05
8 *421:A 9.72255e-05
9 *377:A 0
10 *7:76 7.51184e-05
11 *7:74 0.000132075
12 *7:68 0.00030226
13 *7:66 0.000177971
14 *7:58 0.000447915
15 *7:23 0.000188146
16 *7:17 0.000529455
17 *7:13 0.00363704
18 *7:11 0.00289624
19 *421:A *420:A1 0
20 *421:A *420:A2 0
21 *421:A *468:A 0
22 *421:A *61:12 2.99911e-05
23 *421:A *63:12 4.29135e-05
24 *470:A *469:A1 7.19036e-06
25 *470:A *470:B 0
26 *470:A *579:A 1.08378e-05
27 *502:B2 *502:B1 8.11019e-06
28 *502:B2 *503:B1 1.62716e-05
29 *502:B2 *15:39 2.39679e-06
30 *502:B2 *15:46 0
31 *502:B2 *137:14 3.09143e-06
32 *504:A1 *504:A2 2.52965e-06
33 *504:A1 *506:A2 2.03863e-06
34 *515:A1 *517:A3 2.52965e-06
35 *515:A1 *153:10 7.19036e-06
36 *592:A1 *505:B2 0.000132863
37 *592:A1 *592:B1 2.52965e-06
38 *592:A1 *594:A 0
39 *592:A1 *127:27 7.72792e-06
40 *592:A1 *127:33 0.000118285
41 *592:A1 *356:14 1.50903e-06
42 *592:A1 *356:22 4.12796e-06
43 *592:A1 *356:30 0
44 *7:11 *14:5 2.60945e-06
45 *7:13 *14:15 0
46 *7:13 *28:10 6.87431e-06
47 *7:17 *418:B2 0
48 *7:17 *468:B 0
49 *7:17 *469:A2 6.41837e-05
50 *7:17 *59:8 0
51 *7:17 *60:22 0
52 *7:17 *73:10 0
53 *7:23 *420:A1 0
54 *7:23 *469:A1 0
55 *7:23 *469:A2 4.24381e-05
56 *7:23 *60:22 0
57 *7:58 *434:A 0
58 *7:58 *435:A 3.96215e-05
59 *7:58 *511:A1 7.90853e-06
60 *7:58 *511:A2 8.1352e-06
61 *7:58 *513:A2 3.85541e-05
62 *7:58 *517:A1 0
63 *7:58 *517:A3 1.23949e-05
64 *7:58 *518:A 3.61953e-05
65 *7:58 *14:15 0
66 *7:58 *14:21 0
67 *7:58 *73:10 0
68 *7:58 *77:8 1.76665e-06
69 *7:58 *108:17 3.54695e-06
70 *7:58 *116:57 2.77946e-05
71 *7:66 *515:B1 2.27068e-05
72 *7:68 *515:B1 5.38494e-05
73 *7:68 *515:C2 0.000310834
74 *7:68 *355:27 0
75 *7:68 *356:30 1.2471e-05
76 *7:74 *506:A1 0.000123723
77 *7:74 *507:A 3.60121e-05
78 *7:74 *515:C2 1.72405e-05
79 *7:74 *15:39 5.84417e-05
80 *7:74 *355:27 0
81 *7:74 *356:30 3.42238e-05
82 *7:76 *15:39 7.19036e-06
83 *505:A1 *504:A1 0
84 *525:A1 *7:66 2.94455e-05
85 *6:30 *7:13 0
86 *6:55 *7:68 0
87 *6:70 *7:66 1.1144e-06
88 *6:70 *7:68 0
*RES
1 A[6] *7:11 7.80357 
2 *7:11 *7:13 286.661 
3 *7:13 *7:17 48 
4 *7:17 *7:23 14.5714 
5 *7:23 *377:A 5 
6 *7:23 *421:A 26.9643 
7 *7:17 *470:A 14.75 
8 *7:13 *7:58 46.3572 
9 *7:58 *7:66 9.64286 
10 *7:66 *7:68 21.2857 
11 *7:68 *7:74 20.5 
12 *7:74 *7:76 0.75 
13 *7:76 *502:B2 12.7143 
14 *7:76 *503:A1 5 
15 *7:74 *592:A1 23.2857 
16 *7:68 *504:A1 17.1786 
17 *7:66 *515:A1 10.75 
*END

*D_NET *8 0.00758283
*CONN
*P A[7] I
*I *376:A I *D INV_X1
*I *589:A1 I *D NAND2_X1
*I *505:B2 I *D AOI22_X1
*I *590:A1 I *D OR2_X1
*I *582:A I *D XNOR2_X1
*I *620:A1 I *D AND2_X1
*I *571:A1 I *D AND2_X1
*CAP
1 A[7] 1.33996e-05
2 *376:A 0
3 *589:A1 0
4 *505:B2 0.00017972
5 *590:A1 0
6 *582:A 0
7 *620:A1 0
8 *571:A1 2.48341e-05
9 *8:74 0.000193976
10 *8:70 0.000375399
11 *8:57 0.000430845
12 *8:48 0.000321463
13 *8:36 0.000434874
14 *8:34 0.00011788
15 *8:17 0.000446797
16 *8:15 0.000354337
17 *8:13 0.00156712
18 *8:11 0.00157398
19 *505:B2 *502:B1 5.50055e-06
20 *505:B2 *504:A2 1.99388e-05
21 *505:B2 *505:B1 3.89079e-06
22 *505:B2 *506:A3 7.40306e-06
23 *505:B2 *590:A2 1.2453e-05
24 *505:B2 *591:C1 7.48003e-06
25 *505:B2 *593:A 2.37916e-06
26 *505:B2 *593:B 2.35237e-05
27 *505:B2 *15:39 1.87369e-06
28 *505:B2 *127:33 6.73509e-06
29 *505:B2 *224:8 2.19425e-05
30 *505:B2 *356:22 1.3143e-06
31 *505:B2 *356:30 0
32 *571:A1 *571:A2 1.10138e-05
33 *571:A1 *622:B1 4.80114e-06
34 *571:A1 *205:8 2.20718e-05
35 *8:13 *257:8 0.000380839
36 *8:17 *570:B 3.09682e-06
37 *8:17 *257:8 0.000395421
38 *8:34 *570:B 2.44131e-05
39 *8:34 *257:8 5.54784e-05
40 *8:36 *596:C1 0
41 *8:48 *385:A 4.92317e-06
42 *8:48 *572:A 0
43 *8:48 *596:C1 0
44 *8:48 *596:C2 0
45 *8:48 *600:A 0
46 *8:48 *620:A2 2.75346e-06
47 *8:48 *621:A 0
48 *8:48 *621:B2 2.42675e-05
49 *8:48 *621:C2 5.38515e-05
50 *8:48 *622:A 1.07393e-05
51 *8:48 *622:B2 8.26038e-06
52 *8:48 *17:10 8.727e-07
53 *8:48 *117:47 6.05817e-05
54 *8:57 *570:B 0
55 *8:57 *596:A 6.89712e-05
56 *8:57 *596:B 0
57 *8:57 *596:C1 1.84577e-05
58 *8:57 *596:C2 8.41402e-06
59 *8:57 *16:24 1.58414e-05
60 *8:70 *581:B 0
61 *8:70 *583:A1 0
62 *8:70 *584:B 1.65274e-05
63 *8:70 *589:A2 1.21774e-06
64 *8:70 *594:A 2.23415e-06
65 *8:70 *594:B2 0
66 *8:70 *596:A 5.06473e-05
67 *8:70 *596:B 0
68 *8:70 *71:12 0
69 *8:74 *590:A2 4.37715e-05
70 *592:A1 *505:B2 0.000132863
71 *1:92 *8:48 1.14365e-05
*RES
1 A[7] *8:11 2.30357 
2 *8:11 *8:13 193.518 
3 *8:13 *8:15 0.75 
4 *8:15 *8:17 52.8393 
5 *8:17 *571:A1 13.25 
6 *8:17 *8:34 15.7143 
7 *8:34 *8:36 4.25 
8 *8:36 *8:48 46.5 
9 *8:48 *620:A1 5 
10 *8:36 *8:57 15.4286 
11 *8:57 *582:A 10 
12 *8:57 *8:70 44.0714 
13 *8:70 *8:74 7.28572 
14 *8:74 *590:A1 10 
15 *8:74 *505:B2 33.8572 
16 *8:70 *589:A1 5 
17 *8:34 *376:A 5 
*END

*D_NET *9 0.00692793
*CONN
*P B[0] I
*I *563:A2 I *D AND2_X1
*I *565:B1 I *D OAI21_X1
*I *395:A I *D XOR2_X1
*I *440:A I *D XOR2_X1
*CAP
1 B[0] 0.00260721
2 *563:A2 5.36007e-05
3 *565:B1 0
4 *395:A 0
5 *440:A 0.000337887
6 *9:46 0.000420612
7 *9:27 0.000606624
8 *9:5 0.00270548
9 *563:A2 *565:A 7.19036e-06
10 *563:A2 *567:A2 7.35445e-06
11 *563:A2 *199:8 3.88456e-06
12 *9:27 *383:A 1.14251e-05
13 *9:27 *395:B 0
14 *9:46 *395:B 8.62472e-06
15 *9:46 *397:A1 1.34605e-05
16 *9:46 *397:A2 1.14945e-05
17 *9:46 *398:A 5.88122e-06
18 *9:46 *399:C1 0
19 *9:46 *560:B 0
20 *9:46 *565:A 2.39679e-06
21 *9:46 *567:A1 4.26902e-05
22 *9:46 *568:A 0
23 *9:46 *568:B1 0
24 *9:46 *568:B2 0
25 *9:46 *37:6 3.82997e-06
26 *9:46 *38:8 6.22609e-06
27 *9:46 *41:8 0
28 *1:13 *440:A 0
29 *1:13 *9:5 0
30 *1:70 *9:46 4.6883e-05
31 *1:77 *563:A2 2.27375e-05
32 *1:77 *9:46 1.21774e-06
33 *1:90 *563:A2 1.21774e-06
*RES
1 B[0] *9:5 264.643 
2 *9:5 *440:A 14.4643 
3 *440:A *9:27 40.4286 
4 *9:27 *395:A 5 
5 *9:27 *9:46 49.6429 
6 *9:46 *565:B1 5 
7 *9:46 *563:A2 11.6786 
*END

*D_NET *10 0.00698378
*CONN
*P B[1] I
*I *400:A I *D XNOR2_X1
*I *555:A2 I *D OR2_X1
*I *553:A2 I *D NAND2_X1
*I *445:A I *D XOR2_X1
*CAP
1 B[1] 2.61121e-05
2 *400:A 0
3 *555:A2 5.61966e-05
4 *553:A2 0
5 *445:A 7.57156e-06
6 *10:32 0.000325189
7 *10:28 0.000410418
8 *10:17 0.00030537
9 *10:13 0.00257471
10 *10:11 0.00244445
11 *555:A2 *185:20 0
12 *555:A2 *190:14 4.06546e-05
13 *555:A2 *354:52 0
14 *10:13 *400:B 8.49589e-05
15 *10:13 *42:10 0
16 *10:17 *445:B 0.000133812
17 *10:17 *559:B1 0
18 *10:17 *42:10 0
19 *10:28 *454:A 4.79202e-06
20 *10:32 *455:B1 0
21 *553:A1 *555:A2 3.09411e-06
22 *553:A1 *10:32 4.05299e-05
23 *2:34 *445:A 0
24 *2:34 *10:28 0
25 *2:36 *10:32 0.00052592
26 *2:55 *555:A2 0
*RES
1 B[1] *10:11 4.51786 
2 *10:11 *10:13 279.107 
3 *10:13 *10:17 26.9643 
4 *10:17 *445:A 5.75 
5 *10:17 *10:28 19.25 
6 *10:28 *10:32 41.8929 
7 *10:32 *553:A2 5 
8 *10:32 *555:A2 11.9286 
9 *10:13 *400:A 10 
*END

*D_NET *11 0.00858557
*CONN
*P B[2] I
*I *405:A I *D XNOR2_X1
*I *543:C2 I *D OAI211_X1
*I *544:A2 I *D NAND3_X1
*I *542:A2 I *D NAND3_X1
*I *451:A I *D XNOR2_X1
*CAP
1 B[2] 0.0008141
2 *405:A 3.05047e-05
3 *543:C2 0
4 *544:A2 3.60976e-05
5 *542:A2 1.42897e-05
6 *451:A 0
7 *11:32 6.19304e-05
8 *11:30 0.000416763
9 *11:28 0.000410319
10 *11:19 0.000183959
11 *11:9 0.00169546
12 *11:7 0.00149264
13 *11:5 0.000820645
14 *405:A *405:B 3.85541e-05
15 *405:A *408:A2 0
16 *405:A *411:B 0
17 *542:A2 *544:A3 3.48838e-06
18 *542:A2 *142:36 4.80119e-06
19 *544:A2 *544:A3 1.18077e-05
20 *11:9 *405:B 0.00029013
21 *11:19 *406:A1 0.000141114
22 *11:19 *408:A1 0.00031592
23 *11:19 *451:B 7.76427e-05
24 *11:19 *456:A 1.9777e-05
25 *11:19 *456:B2 0.000251144
26 *11:19 *94:6 6.38328e-07
27 *11:28 *451:B 7.72537e-06
28 *11:30 *547:A 0
29 *11:30 *547:B2 0
30 *11:30 *70:80 0
31 *11:30 *142:49 5.4463e-05
32 *542:A1 *542:A2 3.02372e-05
33 *542:A1 *11:32 1.72405e-05
34 *544:A1 *544:A2 2.88151e-05
35 *3:5 *11:5 0
36 *3:9 *11:9 0
37 *3:9 *11:19 0
38 *3:19 *11:19 3.01447e-05
39 *3:29 *11:19 6.41517e-06
40 *3:29 *11:30 0.000107663
41 *3:33 *11:30 0.00067176
42 *3:37 *11:30 7.85075e-05
43 *3:50 *11:30 0.000372891
44 *3:52 *11:30 2.94435e-05
45 *3:52 *11:32 1.27467e-05
46 *4:11 *11:5 5.79362e-06
*RES
1 B[2] *11:5 93.3929 
2 *11:5 *11:7 0.75 
3 *11:7 *11:9 173.625 
4 *11:9 *11:19 40.25 
5 *11:19 *451:A 5 
6 *11:19 *11:28 5.75 
7 *11:28 *11:30 66.0715 
8 *11:30 *11:32 1.60714 
9 *11:32 *542:A2 12.2857 
10 *11:32 *544:A2 15 
11 *11:30 *543:C2 10 
12 *11:9 *405:A 13.75 
*END

*D_NET *12 0.00683991
*CONN
*P B[3] I
*I *457:A I *D XNOR2_X1
*I *532:A2 I *D NAND2_X1
*I *533:A2 I *D OR2_X1
*I *412:A I *D XNOR2_X1
*CAP
1 B[3] 2.40452e-05
2 *457:A 0
3 *532:A2 8.95362e-06
4 *533:A2 3.15026e-05
5 *412:A 0
6 *12:36 0.0002942
7 *12:34 0.000414019
8 *12:26 0.00039705
9 *12:15 0.000236775
10 *12:13 0.00233934
11 *12:11 0.00236339
12 *533:A2 *537:A 6.86111e-05
13 *12:13 *412:B 6.65611e-05
14 *12:13 *54:8 2.37916e-06
15 *12:26 *414:A1 0
16 *12:26 *414:A2 8.14241e-05
17 *12:26 *55:6 0
18 *12:34 *458:A2 4.45934e-05
19 *12:34 *460:A 0
20 *12:34 *463:A 0
21 *12:36 *537:A 0.000204482
22 *12:36 *538:A 3.24856e-05
23 *12:36 *168:14 8.37194e-05
24 *532:A1 *532:A2 4.77786e-06
25 *547:C1 *533:A2 2.39679e-06
26 *4:13 *12:13 0
27 *4:30 *12:26 5.4579e-05
28 *4:36 *12:26 6.06697e-05
29 *4:36 *12:34 1.14365e-05
30 *4:59 *533:A2 1.25215e-05
*RES
1 B[3] *12:11 4.01786 
2 *12:11 *12:13 269.607 
3 *12:13 *12:15 5 
4 *12:15 *412:A 5 
5 *12:15 *12:26 35.0714 
6 *12:26 *12:34 26.8571 
7 *12:34 *12:36 35.5357 
8 *12:36 *533:A2 14.8929 
9 *12:36 *532:A2 11.25 
10 *12:26 *457:A 10 
*END

*D_NET *13 0.00767238
*CONN
*P B[4] I
*I *523:A2 I *D OR2_X1
*I *522:A2 I *D NAND2_X1
*I *436:A I *D XNOR2_X1
*I *390:A I *D XNOR2_X1
*CAP
1 B[4] 0.00267338
2 *523:A2 0
3 *522:A2 6.65945e-05
4 *436:A 1.26704e-05
5 *390:A 3.11833e-05
6 *13:45 0.000102808
7 *13:41 0.000380196
8 *13:22 0.000485336
9 *13:9 0.000226236
10 *13:5 0.00273975
11 *390:A *390:B 7.2978e-06
12 *436:A *436:B 1.92742e-05
13 *436:A *519:A 2.97531e-05
14 *522:A2 *527:A 2.3767e-06
15 *522:A2 *527:B1 4.43868e-06
16 *522:A2 *527:B2 6.76378e-05
17 *522:A2 *257:8 0
18 *13:9 *390:B 3.89254e-05
19 *13:22 *391:A1 0
20 *13:22 *391:A2 1.91954e-06
21 *13:22 *393:A2 1.08036e-06
22 *13:22 *394:B 3.71274e-05
23 *13:22 *519:A 1.96365e-05
24 *13:22 *32:8 3.41146e-05
25 *13:41 *391:A1 8.43215e-07
26 *13:41 *436:B 1.83315e-05
27 *13:41 *465:B1 5.52959e-06
28 *13:41 *465:B2 0
29 *13:41 *519:A 2.55331e-06
30 *13:41 *528:C1 5.36507e-05
31 *13:41 *528:C2 7.39407e-05
32 *13:41 *78:8 2.33189e-05
33 *379:A *13:22 0
34 *437:A *13:41 7.72537e-06
35 *527:C1 *522:A2 0
36 *527:C1 *13:45 0
37 *4:42 *13:45 0
38 *5:5 *13:5 0
39 *5:31 *13:22 0
40 *5:31 *13:41 2.16072e-07
41 *5:46 *522:A2 1.17192e-05
42 *5:46 *13:41 0.000245051
43 *5:46 *13:45 0.000107525
44 *5:52 *522:A2 0.000140243
*RES
1 B[4] *13:5 271.036 
2 *13:5 *13:9 14.0714 
3 *13:9 *390:A 12.9643 
4 *13:9 *13:22 19.25 
5 *13:22 *436:A 7.75 
6 *13:22 *13:41 47.5714 
7 *13:41 *13:45 10.6786 
8 *13:45 *522:A2 19.75 
9 *13:45 *523:A2 10 
*END

*D_NET *14 0.00743349
*CONN
*P B[5] I
*I *386:A I *D XNOR2_X1
*I *431:A I *D XNOR2_X1
*I *512:A2 I *D AND2_X1
*I *513:A2 I *D OR2_X1
*CAP
1 B[5] 0.00267376
2 *386:A 0
3 *431:A 0
4 *512:A2 0
5 *513:A2 6.81328e-05
6 *14:21 0.000358988
7 *14:15 0.000449172
8 *14:9 0.000229038
9 *14:5 0.00274448
10 *513:A2 *517:A3 1.68643e-06
11 *513:A2 *257:8 0
12 *14:5 *386:B 0
13 *14:9 *388:A1 0.000220051
14 *14:15 *388:A1 2.94113e-05
15 *14:15 *418:C1 6.57345e-05
16 *14:15 *418:C2 6.38328e-07
17 *14:15 *509:B 4.97446e-06
18 *14:15 *518:B1 7.85323e-05
19 *14:15 *60:20 2.07842e-05
20 *14:21 *434:A 8.74982e-05
21 *14:21 *517:A1 4.56446e-05
22 *14:21 *517:A2 1.94739e-05
23 *14:21 *518:B1 0.000111085
24 *14:21 *518:B2 0
25 *14:21 *71:31 0
26 *14:21 *73:10 7.9624e-06
27 *512:A1 *14:21 2.75346e-06
28 *513:A1 *513:A2 7.19036e-06
29 *6:9 *14:9 0
30 *6:9 *14:15 0
31 *6:30 *14:15 5.98684e-05
32 *6:36 *14:21 0
33 *6:70 *513:A2 0.000105476
34 *7:11 *14:5 2.60945e-06
35 *7:13 *14:15 0
36 *7:58 *513:A2 3.85541e-05
37 *7:58 *14:15 0
38 *7:58 *14:21 0
*RES
1 B[5] *14:5 271.036 
2 *14:5 *14:9 16.7857 
3 *14:9 *14:15 26.8572 
4 *14:15 *14:21 37.4286 
5 *14:21 *513:A2 24.0714 
6 *14:21 *512:A2 5 
7 *14:15 *431:A 5 
8 *14:9 *386:A 10 
*END

*D_NET *15 0.0081824
*CONN
*P B[6] I
*I *502:B1 I *D AOI21_X1
*I *504:A2 I *D NAND3_X1
*I *503:A2 I *D OAI22_X1
*I *468:A I *D XNOR2_X1
*I *419:A I *D XNOR2_X1
*CAP
1 B[6] 0.00272816
2 *502:B1 6.89574e-05
3 *504:A2 5.61196e-05
4 *503:A2 0
5 *468:A 4.47089e-05
6 *419:A 0.000104632
7 *15:46 0.00013379
8 *15:39 0.000532659
9 *15:37 0.000523945
10 *15:11 0.000219228
11 *15:9 0.000228599
12 *15:5 0.00288687
13 *419:A *469:A1 0
14 *419:A *61:12 3.72867e-05
15 *502:B1 *502:A 1.21774e-06
16 *502:B1 *503:B2 5.39862e-06
17 *502:B1 *505:B1 9.51676e-06
18 *502:B1 *506:A3 0
19 *502:B1 *122:20 0
20 *504:A2 *504:A3 1.72405e-05
21 *504:A2 *516:A2 5.56848e-05
22 *504:A2 *127:33 7.77137e-05
23 *504:A2 *356:30 0
24 *15:5 *388:A2 3.58094e-06
25 *15:5 *389:A 0
26 *15:5 *418:A 6.07323e-06
27 *15:39 *470:B 0
28 *15:39 *471:A 0
29 *15:39 *473:A2 6.48216e-07
30 *15:39 *506:A3 8.77639e-06
31 *15:39 *507:A 1.20555e-05
32 *15:39 *507:B2 3.19164e-07
33 *15:39 *507:C2 0.000165762
34 *15:39 *109:12 1.74351e-05
35 *15:39 *110:6 0
36 *15:39 *112:8 0
37 *15:39 *113:12 9.60231e-05
38 *15:39 *114:14 8.02774e-06
39 *15:39 *149:8 2.18524e-05
40 *421:A *468:A 0
41 *502:B2 *502:B1 8.11019e-06
42 *502:B2 *15:39 2.39679e-06
43 *502:B2 *15:46 0
44 *504:A1 *504:A2 2.52965e-06
45 *505:A1 *504:A2 4.12796e-06
46 *505:B2 *502:B1 5.50055e-06
47 *505:B2 *504:A2 1.99388e-05
48 *505:B2 *15:39 1.87369e-06
49 *7:74 *15:39 5.84417e-05
50 *7:76 *15:39 7.19036e-06
*RES
1 B[6] *15:5 277.036 
2 *15:5 *15:9 22.8929 
3 *15:9 *15:11 7.71429 
4 *15:11 *419:A 21.75 
5 *15:11 *468:A 14.25 
6 *15:9 *15:37 5 
7 *15:37 *15:39 60.25 
8 *15:39 *503:A2 5 
9 *15:39 *15:46 0.928572 
10 *15:46 *504:A2 23.5357 
11 *15:46 *502:B1 13.4643 
*END

*D_NET *16 0.00576434
*CONN
*P B[7] I
*I *581:A I *D XNOR2_X1
*I *590:A2 I *D OR2_X1
*I *589:A2 I *D NAND2_X1
*I *570:A I *D XOR2_X1
*CAP
1 B[7] 0.000443378
2 *581:A 0
3 *590:A2 2.52751e-05
4 *589:A2 6.47339e-06
5 *570:A 5.53235e-05
6 *16:28 0.000301237
7 *16:24 0.000443252
8 *16:9 0.00195038
9 *16:7 0.00172784
10 *16:5 0.000449923
11 *570:A *622:B1 3.05089e-05
12 *589:A2 *71:12 0
13 *590:A2 *592:B2 8.34049e-06
14 *590:A2 *224:8 5.67661e-05
15 *16:9 *598:B 0
16 *16:24 *596:C2 2.06764e-05
17 *16:24 *598:B 0
18 *16:24 *600:A 1.83288e-05
19 *16:24 *216:8 6.15137e-06
20 *16:28 *581:B 7.98485e-05
21 *16:28 *592:B2 6.73568e-05
22 *16:28 *596:C2 0
23 *505:B2 *590:A2 1.2453e-05
24 *8:57 *16:24 1.58414e-05
25 *8:70 *589:A2 1.21774e-06
26 *8:74 *590:A2 4.37715e-05
*RES
1 B[7] *16:5 50.8929 
2 *16:5 *16:7 0.75 
3 *16:7 *16:9 193.982 
4 *16:9 *570:A 16.75 
5 *16:9 *16:24 25.7857 
6 *16:24 *16:28 39.1786 
7 *16:28 *589:A2 10.75 
8 *16:28 *590:A2 15.0714 
9 *16:24 *581:A 5 
*END

*D_NET *17 0.00436072
*CONN
*P carry_out O
*I *622:ZN O *D OAI221_X1
*CAP
1 carry_out 0.000443378
2 *622:ZN 1.05547e-05
3 *17:12 0.000449923
4 *17:10 0.00172285
5 *17:8 0.00172686
6 *17:8 *622:A 0
7 *17:8 *622:B2 5.52959e-06
8 *17:10 *601:B 0
9 *17:10 *621:B2 0
10 *17:10 *622:A 7.66675e-07
11 *17:10 *238:10 0
12 *8:48 *17:10 8.727e-07
*RES
1 *622:ZN *17:8 11.25 
2 *17:8 *17:10 193.982 
3 *17:10 *17:12 0.75 
4 *17:12 carry_out 50.8929 
*END

*D_NET *18 0.000356835
*CONN
*I *572:A I *D XNOR2_X1
*I *596:C1 I *D OAI211_X1
*I *376:ZN O *D INV_X1
*CAP
1 *572:A 8.16371e-05
2 *596:C1 6.47874e-05
3 *376:ZN 0.000146424
4 *572:A *571:A2 0
5 *572:A *572:B 3.88456e-06
6 *572:A *205:8 0
7 *572:A *207:8 3.10376e-06
8 *596:C1 *570:B 2.46104e-05
9 *596:C1 *596:B 1.27114e-05
10 *596:C1 *596:C2 1.21774e-06
11 *8:36 *596:C1 0
12 *8:48 *572:A 0
13 *8:48 *596:C1 0
14 *8:57 *596:C1 1.84577e-05
*RES
1 *376:ZN *596:C1 28.9286 
2 *376:ZN *572:A 18.1429 
*END

*D_NET *19 0.000308737
*CONN
*I *469:A1 I *D NOR2_X1
*I *420:A1 I *D NOR2_X1
*I *377:ZN O *D INV_X1
*CAP
1 *469:A1 8.11242e-05
2 *420:A1 6.92274e-05
3 *377:ZN 0
4 *19:6 0.000150352
5 *420:A1 *420:A2 8.43215e-07
6 *469:A1 *110:6 0
7 *419:A *469:A1 0
8 *421:A *420:A1 0
9 *470:A *469:A1 7.19036e-06
10 *7:23 *420:A1 0
11 *7:23 *469:A1 0
*RES
1 *377:ZN *19:6 10 
2 *19:6 *420:A1 17.1071 
3 *19:6 *469:A1 18.2143 
*END

*D_NET *20 0.000430386
*CONN
*I *418:C2 I *D OAI221_X1
*I *432:A1 I *D NOR2_X1
*I *378:ZN O *D INV_X1
*CAP
1 *418:C2 5.56529e-05
2 *432:A1 6.84896e-05
3 *378:ZN 2.35732e-05
4 *20:8 0.000147716
5 *418:C2 *418:B2 6.74733e-06
6 *418:C2 *418:C1 7.16188e-07
7 *418:C2 *509:A 3.78913e-05
8 *418:C2 *31:10 3.55154e-06
9 *418:C2 *60:20 2.65731e-05
10 *432:A1 *433:B 3.55154e-06
11 *432:A1 *518:B1 1.28122e-06
12 *432:A1 *60:20 2.8175e-05
13 *6:34 *418:C2 2.14856e-06
14 *6:34 *432:A1 1.6048e-05
15 *6:34 *20:8 7.63212e-06
16 *14:15 *418:C2 6.38328e-07
*RES
1 *378:ZN *20:8 7.35714 
2 *20:8 *432:A1 13.6786 
3 *20:8 *418:C2 13.4286 
*END

*D_NET *21 0.000557701
*CONN
*I *391:A1 I *D NOR2_X1
*I *465:B2 I *D OAI21_X1
*I *379:ZN O *D INV_X1
*CAP
1 *391:A1 9.41358e-05
2 *465:B2 0.000106601
3 *379:ZN 2.01023e-05
4 *21:8 0.000220839
5 *391:A1 *391:A2 0
6 *391:A1 *417:A 0
7 *391:A1 *417:C1 1.43177e-06
8 *391:A1 *436:B 0
9 *465:B2 *417:C2 1.05415e-05
10 *465:B2 *465:A 1.21774e-06
11 *465:B2 *519:A 7.84199e-05
12 *465:B2 *528:C2 6.38784e-06
13 *21:8 *417:C1 2.85655e-06
14 *379:A *465:B2 6.44569e-06
15 *5:31 *391:A1 7.87811e-06
16 *13:22 *391:A1 0
17 *13:41 *391:A1 8.43215e-07
18 *13:41 *465:B2 0
*RES
1 *379:ZN *21:8 11.6071 
2 *21:8 *465:B2 24.3571 
3 *21:8 *391:A1 18.75 
*END

*D_NET *22 0.000342173
*CONN
*I *416:C2 I *D OAI221_X1
*I *458:A1 I *D NOR2_X1
*I *380:ZN O *D INV_X1
*CAP
1 *416:C2 5.03451e-05
2 *458:A1 7.55448e-05
3 *380:ZN 3.94781e-05
4 *22:8 0.000165368
5 *416:C2 *416:A 0
6 *416:C2 *457:B 0
7 *416:C2 *57:10 1.14365e-05
8 *458:A1 *457:B 0
9 *458:A1 *99:8 0
10 *22:8 *416:A 0
*RES
1 *380:ZN *22:8 13.75 
2 *22:8 *458:A1 18.3929 
3 *22:8 *416:C2 15 
*END

*D_NET *23 0.000968682
*CONN
*I *406:A1 I *D NOR2_X1
*I *456:B2 I *D OAI21_X1
*I *381:ZN O *D INV_X1
*CAP
1 *406:A1 3.23018e-05
2 *456:B2 4.5989e-05
3 *381:ZN 1.35029e-05
4 *23:8 9.17937e-05
5 *406:A1 *406:A2 2.52965e-06
6 *456:B2 *456:A 4.41894e-05
7 *456:B2 *456:B1 8.43215e-07
8 *23:8 *53:8 4.21607e-06
9 *3:19 *406:A1 0.000145716
10 *3:19 *456:B2 1.2453e-05
11 *3:29 *456:B2 0.000182888
12 *11:19 *406:A1 0.000141114
13 *11:19 *456:B2 0.000251144
*RES
1 *381:ZN *23:8 11.25 
2 *23:8 *456:B2 23.8929 
3 *23:8 *406:A1 18.4643 
*END

*D_NET *24 0.000265699
*CONN
*I *404:C2 I *D OAI221_X1
*I *447:A I *D XNOR2_X1
*I *382:ZN O *D INV_X1
*CAP
1 *404:C2 2.84353e-05
2 *447:A 8.03313e-05
3 *382:ZN 0
4 *24:4 0.000108767
5 *404:C2 *403:A 0
6 *404:C2 *404:B1 1.21774e-06
7 *404:C2 *404:B2 1.65202e-06
8 *404:C2 *404:C1 8.43215e-07
9 *447:A *403:A 0
10 *447:A *404:B2 3.77173e-06
11 *447:A *89:10 6.92245e-06
12 *382:A *404:C2 1.98123e-05
13 *382:A *447:A 1.39467e-05
14 *2:23 *447:A 0
*RES
1 *382:ZN *24:4 5 
2 *24:4 *447:A 23.9643 
3 *24:4 *404:C2 8.25 
*END

*D_NET *25 0.00025038
*CONN
*I *444:B2 I *D OAI21_X1
*I *443:B2 I *D AOI21_X1
*I *383:ZN O *D INV_X1
*CAP
1 *444:B2 0
2 *443:B2 4.81216e-05
3 *383:ZN 2.14476e-05
4 *25:6 6.95692e-05
5 *443:B2 *384:A 0
6 *443:B2 *443:B1 4.24402e-05
7 *443:B2 *84:10 2.96072e-05
8 *443:B2 *84:21 3.91943e-05
*RES
1 *383:ZN *25:6 7.28572 
2 *25:6 *443:B2 20.6786 
3 *25:6 *444:B2 5 
*END

*D_NET *26 5.84512e-05
*CONN
*I *443:A I *D AOI21_X1
*I *384:ZN O *D INV_X1
*CAP
1 *443:A 2.92256e-05
2 *384:ZN 2.92256e-05
3 *443:A *384:A 0
*RES
1 *384:ZN *443:A 22.9643 
*END

*D_NET *27 0.000225074
*CONN
*I *619:A1 I *D NOR4_X1
*I *385:ZN O *D INV_X1
*CAP
1 *619:A1 0.000112537
2 *385:ZN 0.000112537
3 *619:A1 *385:A 0
4 *619:A1 *619:A2 0
5 *619:A1 *116:23 0
6 *619:A1 *117:47 0
7 *1:92 *619:A1 0
*RES
1 *385:ZN *619:A1 31.6429 
*END

*D_NET *28 0.000581364
*CONN
*I *418:C1 I *D OAI221_X1
*I *387:B I *D XNOR2_X1
*I *386:ZN O *D XNOR2_X1
*CAP
1 *418:C1 8.34128e-05
2 *387:B 2.78292e-05
3 *386:ZN 6.23374e-05
4 *28:10 0.000173579
5 *418:C1 *389:A 0
6 *418:C1 *29:10 1.04928e-05
7 *418:C1 *31:10 5.75996e-06
8 *418:C1 *60:20 1.04584e-06
9 *387:A *387:B 4.32298e-05
10 *387:A *28:10 2.51997e-05
11 *418:C2 *418:C1 7.16188e-07
12 *6:9 *28:10 5.56848e-05
13 *6:30 *418:C1 1.46756e-05
14 *6:30 *28:10 4.79202e-06
15 *7:13 *28:10 6.87431e-06
16 *14:15 *418:C1 6.57345e-05
*RES
1 *386:ZN *28:10 18.0714 
2 *28:10 *387:B 13.5357 
3 *28:10 *418:C1 21.1786 
*END

*D_NET *29 0.000280356
*CONN
*I *389:B I *D XNOR2_X1
*I *388:A2 I *D NAND2_X1
*I *387:ZN O *D XNOR2_X1
*CAP
1 *389:B 0
2 *388:A2 5.18914e-05
3 *387:ZN 6.44231e-05
4 *29:10 0.000116315
5 *388:A2 *388:A1 2.64346e-05
6 *388:A2 *389:A 0
7 *29:10 *389:A 7.2187e-06
8 *29:10 *31:10 0
9 *418:C1 *29:10 1.04928e-05
10 *15:5 *388:A2 3.58094e-06
*RES
1 *387:ZN *29:10 12.2857 
2 *29:10 *388:A2 21.25 
3 *29:10 *389:B 5 
*END

*D_NET *30 0.000211066
*CONN
*I *418:A I *D OAI221_X1
*I *388:ZN O *D NAND2_X1
*CAP
1 *418:A 7.23183e-05
2 *388:ZN 7.23183e-05
3 *418:A *389:A 1.87418e-05
4 *6:30 *418:A 4.16143e-05
5 *15:5 *418:A 6.07323e-06
*RES
1 *388:ZN *418:A 28.0714 
*END

*D_NET *31 0.000293285
*CONN
*I *418:B1 I *D OAI221_X1
*I *509:A I *D XNOR2_X1
*I *389:ZN O *D XNOR2_X1
*CAP
1 *418:B1 0
2 *509:A 4.40289e-05
3 *389:ZN 4.48132e-05
4 *31:10 8.88421e-05
5 *509:A *418:B2 5.31827e-05
6 *31:10 *389:A 1.35291e-05
7 *418:C1 *31:10 5.75996e-06
8 *418:C2 *509:A 3.78913e-05
9 *418:C2 *31:10 3.55154e-06
10 *6:30 *509:A 0
11 *6:30 *31:10 1.68643e-06
12 *29:10 *31:10 0
*RES
1 *389:ZN *31:10 10.6071 
2 *31:10 *509:A 21.5357 
3 *31:10 *418:B1 5 
*END

*D_NET *32 0.000452449
*CONN
*I *392:B I *D XNOR2_X1
*I *391:A2 I *D NOR2_X1
*I *390:ZN O *D XNOR2_X1
*CAP
1 *392:B 0
2 *391:A2 8.24789e-05
3 *390:ZN 4.56996e-05
4 *32:8 0.000128178
5 *391:A2 *394:A 1.64202e-05
6 *391:A2 *394:B 5.87611e-06
7 *391:A2 *417:A 9.09273e-05
8 *391:A2 *417:C1 3.66247e-06
9 *379:A *391:A2 4.31719e-05
10 *391:A1 *391:A2 0
11 *13:22 *391:A2 1.91954e-06
12 *13:22 *32:8 3.41146e-05
*RES
1 *390:ZN *32:8 10.5357 
2 *32:8 *391:A2 25.75 
3 *32:8 *392:B 5 
*END

*D_NET *33 0.000286393
*CONN
*I *417:A I *D AOI211_X1
*I *391:ZN O *D NOR2_X1
*CAP
1 *417:A 6.44071e-05
2 *391:ZN 6.44071e-05
3 *417:A *394:A 6.70018e-06
4 *417:A *417:B 2.898e-05
5 *417:A *417:C2 3.05388e-05
6 *379:A *417:A 4.32144e-07
7 *391:A1 *417:A 0
8 *391:A2 *417:A 9.09273e-05
*RES
1 *391:ZN *417:A 29.1429 
*END

*D_NET *34 0.000264434
*CONN
*I *393:A2 I *D AND2_X1
*I *394:B I *D XOR2_X1
*I *392:ZN O *D XNOR2_X1
*CAP
1 *393:A2 2.50054e-05
2 *394:B 3.00572e-05
3 *392:ZN 0
4 *34:4 5.50626e-05
5 *393:A2 *417:B 5.54007e-05
6 *391:A2 *394:B 5.87611e-06
7 *5:13 *393:A2 5.48248e-05
8 *13:22 *393:A2 1.08036e-06
9 *13:22 *394:B 3.71274e-05
*RES
1 *392:ZN *34:4 5 
2 *34:4 *394:B 8.75 
3 *34:4 *393:A2 19.2143 
*END

*D_NET *35 0.000334842
*CONN
*I *417:B I *D AOI211_X1
*I *393:ZN O *D AND2_X1
*CAP
1 *417:B 0.000104373
2 *393:ZN 0.000104373
3 *417:B *393:A1 1.11198e-05
4 *417:B *417:C1 2.39679e-06
5 *417:B *417:C2 5.20238e-07
6 *379:A *417:B 2.87703e-06
7 *393:A2 *417:B 5.54007e-05
8 *417:A *417:B 2.898e-05
9 *5:13 *417:B 2.48022e-05
*RES
1 *393:ZN *417:B 33 
*END

*D_NET *36 0.000460095
*CONN
*I *417:C1 I *D AOI211_X1
*I *519:A I *D XNOR2_X1
*I *394:Z O *D XOR2_X1
*CAP
1 *417:C1 7.90397e-05
2 *519:A 5.75925e-05
3 *394:Z 0
4 *36:4 0.000136632
5 *417:C1 *394:A 3.28718e-05
6 *417:C1 *417:C2 1.28122e-06
7 *519:A *436:B 1.03664e-05
8 *379:A *519:A 1.60038e-06
9 *391:A1 *417:C1 1.43177e-06
10 *391:A2 *417:C1 3.66247e-06
11 *417:B *417:C1 2.39679e-06
12 *436:A *519:A 2.97531e-05
13 *465:B2 *519:A 7.84199e-05
14 *13:22 *519:A 1.96365e-05
15 *13:41 *519:A 2.55331e-06
16 *21:8 *417:C1 2.85655e-06
*RES
1 *394:Z *36:4 5 
2 *36:4 *519:A 14.1786 
3 *36:4 *417:C1 23.1071 
*END

*D_NET *37 0.000289265
*CONN
*I *399:C1 I *D AOI221_X1
*I *396:B I *D XOR2_X1
*I *395:Z O *D XOR2_X1
*CAP
1 *399:C1 6.86594e-05
2 *396:B 1.01322e-05
3 *395:Z 3.81431e-05
4 *37:6 0.000116935
5 *396:B *38:8 0
6 *37:6 *395:B 3.35796e-05
7 *1:54 *399:C1 1.77697e-05
8 *1:64 *399:C1 2.16072e-07
9 *9:46 *399:C1 0
10 *9:46 *37:6 3.82997e-06
*RES
1 *395:Z *37:6 9.75 
2 *37:6 *396:B 5.92857 
3 *37:6 *399:C1 12.5357 
*END

*D_NET *38 0.000319322
*CONN
*I *397:A2 I *D AND2_X1
*I *398:B I *D XOR2_X1
*I *396:Z O *D XOR2_X1
*CAP
1 *397:A2 3.66405e-05
2 *398:B 2.26723e-05
3 *396:Z 3.91466e-05
4 *38:8 9.84594e-05
5 *397:A2 *397:A1 3.35822e-05
6 *397:A2 *399:B1 2.52965e-06
7 *397:A2 *560:B 3.1424e-05
8 *398:B *399:B2 2.06603e-05
9 *38:8 *560:B 1.18547e-06
10 *396:B *38:8 0
11 *1:54 *397:A2 1.28122e-06
12 *1:54 *38:8 1.40196e-05
13 *9:46 *397:A2 1.14945e-05
14 *9:46 *38:8 6.22609e-06
*RES
1 *396:Z *38:8 9.85714 
2 *38:8 *398:B 17.9643 
3 *38:8 *397:A2 10.75 
*END

*D_NET *39 0.000105813
*CONN
*I *399:A I *D AOI221_X1
*I *397:ZN O *D AND2_X1
*CAP
1 *399:A 3.37493e-05
2 *397:ZN 3.37493e-05
3 *399:A *399:B1 7.72537e-06
4 *399:A *560:B 2.49399e-05
5 *399:A *41:8 2.89521e-06
6 *1:54 *399:A 2.75346e-06
7 *1:64 *399:A 0
*RES
1 *397:ZN *399:A 14.1786 
*END

*D_NET *40 0.000344148
*CONN
*I *560:B I *D XOR2_X1
*I *399:B1 I *D AOI221_X1
*I *398:Z O *D XOR2_X1
*CAP
1 *560:B 8.24032e-05
2 *399:B1 5.55543e-06
3 *398:Z 1.98305e-05
4 *40:10 0.000107789
5 *560:B *41:8 1.08561e-05
6 *40:10 *397:A1 6.99525e-06
7 *40:10 *399:B2 4.29135e-05
8 *397:A2 *399:B1 2.52965e-06
9 *397:A2 *560:B 3.1424e-05
10 *399:A *399:B1 7.72537e-06
11 *399:A *560:B 2.49399e-05
12 *9:46 *560:B 0
13 *38:8 *560:B 1.18547e-06
*RES
1 *398:Z *40:10 17.9643 
2 *40:10 *399:B1 5.75 
3 *40:10 *560:B 16.1071 
*END

*D_NET *41 0.00196269
*CONN
*I *404:B2 I *D OAI221_X1
*I *549:A I *D XNOR2_X1
*I *399:ZN O *D AOI221_X1
*CAP
1 *404:B2 4.68635e-05
2 *549:A 8.10175e-06
3 *399:ZN 9.47139e-05
4 *41:10 0.000531893
5 *41:8 0.000571641
6 *404:B2 *404:B1 2.39679e-06
7 *404:B2 *446:A2 2.96955e-05
8 *404:B2 *89:10 5.06473e-05
9 *549:A *447:B 2.52965e-06
10 *41:8 *568:B1 1.15841e-05
11 *41:8 *204:10 3.90865e-05
12 *41:10 *446:A2 8.22137e-05
13 *41:10 *448:A 0
14 *41:10 *450:A 2.04476e-05
15 *41:10 *450:B1 4.26902e-05
16 *41:10 *450:B2 5.49415e-05
17 *41:10 *552:A 6.97776e-06
18 *41:10 *559:B1 1.75163e-06
19 *41:10 *623:A1 8.11741e-05
20 *41:10 *623:A3 9.77674e-06
21 *41:10 *89:10 0.000108205
22 *41:10 *90:12 0
23 *41:10 *204:10 0
24 *41:10 *260:23 9.04209e-05
25 *382:A *404:B2 8.43215e-07
26 *399:A *41:8 2.89521e-06
27 *404:C2 *404:B2 1.65202e-06
28 *447:A *404:B2 3.77173e-06
29 *560:B *41:8 1.08561e-05
30 *1:64 *41:8 2.01142e-05
31 *2:23 *404:B2 3.4802e-05
32 *9:46 *41:8 0
*RES
1 *399:ZN *41:8 22.25 
2 *41:8 *41:10 60.6429 
3 *41:10 *549:A 10.75 
4 *41:10 *404:B2 17.6071 
*END

*D_NET *42 0.000520831
*CONN
*I *401:B I *D XNOR2_X1
*I *404:C1 I *D OAI221_X1
*I *400:ZN O *D XNOR2_X1
*CAP
1 *401:B 0
2 *404:C1 6.12705e-05
3 *400:ZN 6.80749e-05
4 *42:10 0.000129345
5 *404:C1 *403:B 5.48932e-05
6 *404:C1 *404:A 2.3905e-05
7 *404:C1 *404:B1 3.19164e-07
8 *404:C1 *445:B 0
9 *404:C1 *43:8 5.17307e-05
10 *404:C1 *45:10 8.16741e-05
11 *42:10 *400:B 0
12 *42:10 *43:8 1.77822e-05
13 *404:C2 *404:C1 8.43215e-07
14 *2:9 *404:C1 4.12911e-06
15 *2:9 *42:10 2.41394e-05
16 *2:11 *404:C1 2.72417e-06
17 *10:13 *42:10 0
18 *10:17 *42:10 0
*RES
1 *400:ZN *42:10 18.4286 
2 *42:10 *404:C1 20.3214 
3 *42:10 *401:B 10 
*END

*D_NET *43 0.000407207
*CONN
*I *402:A2 I *D NAND2_X1
*I *403:B I *D XNOR2_X1
*I *401:ZN O *D XNOR2_X1
*CAP
1 *402:A2 6.43944e-05
2 *403:B 2.96898e-05
3 *401:ZN 2.22422e-05
4 *43:8 0.000116326
5 *402:A2 *402:A1 3.41146e-05
6 *402:A2 *403:A 0
7 *402:A2 *404:A 7.76226e-06
8 *402:A2 *45:10 1.08036e-06
9 *403:B *445:B 0
10 *403:B *45:10 7.19036e-06
11 *43:8 *445:B 0
12 *404:C1 *403:B 5.48932e-05
13 *404:C1 *43:8 5.17307e-05
14 *42:10 *43:8 1.77822e-05
*RES
1 *401:ZN *43:8 13.6429 
2 *43:8 *403:B 13.7143 
3 *43:8 *402:A2 17.1786 
*END

*D_NET *44 0.000573025
*CONN
*I *404:A I *D OAI221_X1
*I *402:ZN O *D NAND2_X1
*CAP
1 *404:A 9.96171e-05
2 *402:ZN 9.96171e-05
3 *404:A *402:A1 3.35796e-05
4 *404:A *403:A 0
5 *404:A *45:10 0.00012016
6 *402:A2 *404:A 7.76226e-06
7 *404:C1 *404:A 2.3905e-05
8 *2:11 *404:A 0.000165919
9 *2:23 *404:A 2.2464e-05
*RES
1 *402:ZN *404:A 37.1072 
*END

*D_NET *45 0.000542039
*CONN
*I *404:B1 I *D OAI221_X1
*I *549:B I *D XNOR2_X1
*I *403:ZN O *D XNOR2_X1
*CAP
1 *404:B1 7.32697e-06
2 *549:B 4.64094e-05
3 *403:ZN 4.40575e-05
4 *45:10 9.77939e-05
5 *549:B *445:B 0
6 *549:B *559:B1 5.57182e-06
7 *549:B *87:6 7.72792e-06
8 *45:10 *445:B 0
9 *402:A2 *45:10 1.08036e-06
10 *403:B *45:10 7.19036e-06
11 *404:A *45:10 0.00012016
12 *404:B2 *404:B1 2.39679e-06
13 *404:C1 *404:B1 3.19164e-07
14 *404:C1 *45:10 8.16741e-05
15 *404:C2 *404:B1 1.21774e-06
16 *2:23 *549:B 0.000115884
17 *2:23 *45:10 3.22858e-06
18 *2:34 *549:B 0
*RES
1 *403:ZN *45:10 18.2857 
2 *45:10 *549:B 17.1071 
3 *45:10 *404:B1 10.75 
*END

*D_NET *46 0.000939214
*CONN
*I *411:C2 I *D AOI211_X1
*I *539:A I *D XNOR2_X1
*I *404:ZN O *D OAI221_X1
*CAP
1 *411:C2 8.42995e-05
2 *539:A 0
3 *404:ZN 0.00036264
4 *46:10 0.000446939
5 *411:C2 *411:C1 2.07669e-05
6 *411:C2 *539:B 1.25407e-05
7 *411:C2 *177:14 2.10286e-06
8 *46:10 *177:14 9.92485e-06
*RES
1 *404:ZN *46:10 46.8214 
2 *46:10 *539:A 10 
3 *46:10 *411:C2 19.8929 
*END

*D_NET *47 0.000409735
*CONN
*I *407:B I *D XNOR2_X1
*I *406:A2 I *D NOR2_X1
*I *405:ZN O *D XNOR2_X1
*CAP
1 *407:B 0
2 *406:A2 8.92946e-05
3 *405:ZN 6.04787e-05
4 *47:10 0.000149773
5 *406:A2 *408:A2 0
6 *406:A2 *410:A 0
7 *406:A2 *411:A 3.47306e-05
8 *406:A2 *411:B 3.69961e-05
9 *406:A2 *411:C1 2.86475e-06
10 *406:A2 *52:8 0
11 *406:A2 *53:8 0
12 *47:10 *405:B 2.39679e-06
13 *47:10 *408:A2 0
14 *47:10 *409:B 0
15 *47:10 *411:B 1.11258e-05
16 *406:A1 *406:A2 2.52965e-06
17 *3:9 *47:10 1.95448e-05
*RES
1 *405:ZN *47:10 17.1071 
2 *47:10 *406:A2 20.75 
3 *47:10 *407:B 10 
*END

*D_NET *48 0.000151697
*CONN
*I *411:A I *D AOI211_X1
*I *406:ZN O *D NOR2_X1
*CAP
1 *411:A 4.00223e-05
2 *406:ZN 4.00223e-05
3 *411:A *408:A1 3.69646e-06
4 *411:A *411:B 2.94455e-05
5 *411:A *411:C1 1.21774e-06
6 *406:A2 *411:A 3.47306e-05
7 *3:19 *411:A 2.56243e-06
*RES
1 *406:ZN *411:A 25.1071 
*END

*D_NET *49 0.000278501
*CONN
*I *408:A2 I *D AND2_X1
*I *409:B I *D XNOR2_X1
*I *407:ZN O *D XNOR2_X1
*CAP
1 *408:A2 5.81689e-05
2 *409:B 5.33254e-05
3 *407:ZN 0
4 *49:4 0.000111494
5 *408:A2 *405:B 0
6 *408:A2 *408:A1 7.2187e-06
7 *408:A2 *411:B 3.28688e-05
8 *409:B *409:A 0
9 *409:B *410:A 8.26038e-06
10 *409:B *411:C1 0
11 *405:A *408:A2 0
12 *406:A2 *408:A2 0
13 *3:19 *408:A2 4.79372e-06
14 *3:19 *409:B 2.37093e-06
15 *47:10 *408:A2 0
16 *47:10 *409:B 0
*RES
1 *407:ZN *49:4 5 
2 *49:4 *409:B 10.7857 
3 *49:4 *408:A2 12.1786 
*END

*D_NET *50 0.000301996
*CONN
*I *411:B I *D AOI211_X1
*I *408:ZN O *D AND2_X1
*CAP
1 *411:B 7.24737e-05
2 *408:ZN 7.24737e-05
3 *411:B *408:A1 4.17423e-06
4 *411:B *52:8 0
5 *405:A *411:B 0
6 *406:A2 *411:B 3.69961e-05
7 *408:A2 *411:B 3.28688e-05
8 *411:A *411:B 2.94455e-05
9 *3:9 *411:B 4.24381e-05
10 *47:10 *411:B 1.11258e-05
*RES
1 *408:ZN *411:B 30.9643 
*END

*D_NET *51 0.000133928
*CONN
*I *410:A I *D INV_X1
*I *409:ZN O *D XNOR2_X1
*CAP
1 *410:A 5.93362e-05
2 *409:ZN 5.93362e-05
3 *410:A *52:8 6.99525e-06
4 *406:A2 *410:A 0
5 *409:B *410:A 8.26038e-06
*RES
1 *409:ZN *410:A 26.75 
*END

*D_NET *52 0.000238427
*CONN
*I *411:C1 I *D AOI211_X1
*I *539:B I *D XNOR2_X1
*I *410:ZN O *D INV_X1
*CAP
1 *411:C1 3.85908e-05
2 *539:B 3.82504e-05
3 *410:ZN 2.01795e-05
4 *52:8 9.70206e-05
5 *406:A2 *411:C1 2.86475e-06
6 *406:A2 *52:8 0
7 *409:B *411:C1 0
8 *410:A *52:8 6.99525e-06
9 *411:A *411:C1 1.21774e-06
10 *411:B *52:8 0
11 *411:C2 *411:C1 2.07669e-05
12 *411:C2 *539:B 1.25407e-05
*RES
1 *410:ZN *52:8 12.2857 
2 *52:8 *539:B 14.3214 
3 *52:8 *411:C1 14.75 
*END

*D_NET *53 0.000781047
*CONN
*I *416:B2 I *D OAI221_X1
*I *529:A I *D XOR2_X1
*I *411:ZN O *D AOI211_X1
*CAP
1 *416:B2 4.08093e-05
2 *529:A 0
3 *411:ZN 0.000308899
4 *53:8 0.000349709
5 *416:B2 *415:A 0
6 *416:B2 *416:B1 1.04788e-05
7 *416:B2 *529:B 3.96215e-05
8 *53:8 *415:A 0
9 *53:8 *451:B 6.54588e-06
10 *53:8 *453:A1 0
11 *53:8 *168:8 2.07669e-05
12 *406:A2 *53:8 0
13 *23:8 *53:8 4.21607e-06
*RES
1 *411:ZN *53:8 36.2143 
2 *53:8 *529:A 5 
3 *53:8 *416:B2 10.25 
*END

*D_NET *54 0.00059218
*CONN
*I *413:B I *D XNOR2_X1
*I *416:C1 I *D OAI221_X1
*I *412:ZN O *D XNOR2_X1
*CAP
1 *413:B 6.47096e-05
2 *416:C1 4.29525e-05
3 *412:ZN 3.06237e-05
4 *54:8 0.000138286
5 *413:B *414:A2 7.72537e-06
6 *413:B *415:A 7.30645e-06
7 *413:B *55:6 3.46734e-05
8 *416:C1 *414:A1 4.24381e-05
9 *416:C1 *416:A 8.62642e-06
10 *416:C1 *457:B 4.76429e-07
11 *416:C1 *57:10 1.25288e-05
12 *416:C1 *58:6 3.65322e-06
13 *54:8 *412:B 1.77822e-05
14 *54:8 *414:A1 0.000106624
15 *54:8 *57:10 3.60384e-06
16 *4:30 *413:B 6.77912e-05
17 *4:30 *416:C1 0
18 *12:13 *54:8 2.37916e-06
*RES
1 *412:ZN *54:8 15.6786 
2 *54:8 *416:C1 16.0714 
3 *54:8 *413:B 19.1071 
*END

*D_NET *55 0.000404815
*CONN
*I *414:A2 I *D NAND2_X1
*I *415:B I *D XNOR2_X1
*I *413:ZN O *D XNOR2_X1
*CAP
1 *414:A2 6.42175e-05
2 *415:B 0
3 *413:ZN 3.74014e-05
4 *55:6 0.000101619
5 *414:A2 *414:A1 0
6 *414:A2 *457:B 1.18559e-05
7 *413:B *414:A2 7.72537e-06
8 *413:B *55:6 3.46734e-05
9 *4:30 *414:A2 6.58981e-05
10 *12:26 *414:A2 8.14241e-05
11 *12:26 *55:6 0
*RES
1 *413:ZN *55:6 9.5 
2 *55:6 *415:B 5 
3 *55:6 *414:A2 24.3214 
*END

*D_NET *56 0.000176616
*CONN
*I *416:A I *D OAI221_X1
*I *414:ZN O *D NAND2_X1
*CAP
1 *416:A 5.5866e-05
2 *414:ZN 5.5866e-05
3 *416:A *416:B1 2.39679e-06
4 *416:A *457:B 2.57883e-05
5 *416:A *57:10 0
6 *416:A *58:6 2.80727e-05
7 *416:C1 *416:A 8.62642e-06
8 *416:C2 *416:A 0
9 *22:8 *416:A 0
*RES
1 *414:ZN *416:A 27.3929 
*END

*D_NET *57 0.000302866
*CONN
*I *416:B1 I *D OAI221_X1
*I *529:B I *D XOR2_X1
*I *415:ZN O *D XNOR2_X1
*CAP
1 *416:B1 8.80217e-06
2 *529:B 2.88867e-05
3 *415:ZN 7.18832e-05
4 *57:10 0.000109572
5 *416:B1 *415:A 0
6 *529:B *415:A 0
7 *416:A *416:B1 2.39679e-06
8 *416:A *57:10 0
9 *416:B2 *416:B1 1.04788e-05
10 *416:B2 *529:B 3.96215e-05
11 *416:C1 *57:10 1.25288e-05
12 *416:C2 *57:10 1.14365e-05
13 *4:13 *57:10 3.65597e-06
14 *4:30 *416:B1 0
15 *54:8 *57:10 3.60384e-06
*RES
1 *415:ZN *57:10 23.3929 
2 *57:10 *529:B 8.75 
3 *57:10 *416:B1 6.25 
*END

*D_NET *58 0.00242603
*CONN
*I *519:B I *D XNOR2_X1
*I *417:C2 I *D AOI211_X1
*I *416:ZN O *D OAI221_X1
*CAP
1 *519:B 0
2 *417:C2 0.000176583
3 *416:ZN 0.000437505
4 *58:10 0.000636182
5 *58:8 0.000459599
6 *58:6 0.000437505
7 *417:C2 *393:A1 0
8 *417:C2 *394:A 8.14241e-05
9 *417:C2 *436:B 8.33759e-07
10 *417:C2 *465:B1 0
11 *58:6 *414:A1 0
12 *58:10 *436:B 6.20961e-05
13 *58:10 *438:A1 0
14 *58:10 *465:A 0
15 *58:10 *465:B1 0
16 *379:A *417:C2 5.96901e-05
17 *380:A *58:6 0
18 *416:A *58:6 2.80727e-05
19 *416:C1 *58:6 3.65322e-06
20 *417:A *417:C2 3.05388e-05
21 *417:B *417:C2 5.20238e-07
22 *417:C1 *417:C2 1.28122e-06
23 *465:B2 *417:C2 1.05415e-05
24 *4:30 *58:6 0
*RES
1 *416:ZN *58:6 48.75 
2 *58:6 *58:8 5 
3 *58:8 *58:10 53.8572 
4 *58:10 *417:C2 40.5714 
5 *58:10 *519:B 10 
*END

*D_NET *59 0.000988433
*CONN
*I *509:B I *D XNOR2_X1
*I *418:B2 I *D OAI221_X1
*I *417:ZN O *D AOI211_X1
*CAP
1 *509:B 3.63677e-06
2 *418:B2 7.3157e-05
3 *417:ZN 0.000232753
4 *59:8 0.000309547
5 *509:B *60:20 1.87637e-06
6 *59:8 *394:A 0.000238691
7 *418:C2 *418:B2 6.74733e-06
8 *509:A *418:B2 5.31827e-05
9 *6:30 *418:B2 5.01004e-05
10 *6:34 *418:B2 1.37673e-05
11 *7:17 *418:B2 0
12 *7:17 *59:8 0
13 *14:15 *509:B 4.97446e-06
*RES
1 *417:ZN *59:8 40.1072 
2 *59:8 *418:B2 20.0714 
3 *59:8 *509:B 10.5 
*END

*D_NET *60 0.00174684
*CONN
*I *424:A1 I *D NOR2_X1
*I *577:B2 I *D AOI21_X1
*I *423:A1 I *D NAND2_X1
*I *418:ZN O *D OAI221_X1
*CAP
1 *424:A1 9.34204e-06
2 *577:B2 7.44502e-06
3 *423:A1 2.93627e-05
4 *418:ZN 0.000110697
5 *60:24 8.65462e-05
6 *60:22 0.000575147
7 *60:20 0.000626764
8 *423:A1 *423:A2 1.58752e-05
9 *424:A1 *64:10 1.28122e-06
10 *577:B2 *577:A 2.16072e-07
11 *60:20 *518:B1 3.03869e-05
12 *60:22 *432:A2 1.55645e-05
13 *60:22 *467:A 1.04975e-05
14 *60:22 *469:A2 0
15 *60:22 *470:B 1.19024e-05
16 *60:22 *579:B2 7.79901e-05
17 *60:22 *64:10 1.94663e-05
18 *60:22 *73:10 1.52083e-06
19 *60:24 *423:A2 9.91569e-06
20 *60:24 *64:10 1.10195e-05
21 *60:24 *64:12 1.74456e-05
22 *418:C1 *60:20 1.04584e-06
23 *418:C2 *60:20 2.65731e-05
24 *432:A1 *60:20 2.8175e-05
25 *509:B *60:20 1.87637e-06
26 *7:17 *60:22 0
27 *7:23 *60:22 0
28 *14:15 *60:20 2.07842e-05
*RES
1 *418:ZN *60:20 26.1071 
2 *60:20 *60:22 61.3215 
3 *60:22 *60:24 5.67857 
4 *60:24 *423:A1 13.5357 
5 *60:24 *577:B2 11.25 
6 *60:22 *424:A1 11.25 
*END

*D_NET *61 0.000390304
*CONN
*I *421:B I *D XNOR2_X1
*I *420:A2 I *D NOR2_X1
*I *419:ZN O *D XNOR2_X1
*CAP
1 *421:B 0
2 *420:A2 6.17988e-05
3 *419:ZN 9.92928e-05
4 *61:12 0.000161092
5 *419:A *61:12 3.72867e-05
6 *420:A1 *420:A2 8.43215e-07
7 *421:A *420:A2 0
8 *421:A *61:12 2.99911e-05
*RES
1 *419:ZN *61:12 27.5 
2 *61:12 *420:A2 10.75 
3 *61:12 *421:B 5 
*END

*D_NET *62 0.000153198
*CONN
*I *575:A I *D AOI21_X1
*I *420:ZN O *D NOR2_X1
*CAP
1 *575:A 7.6599e-05
2 *420:ZN 7.6599e-05
3 *575:A *63:12 0
*RES
1 *420:ZN *575:A 28.3929 
*END

*D_NET *63 0.000419196
*CONN
*I *575:B1 I *D AOI21_X1
*I *422:B I *D XOR2_X1
*I *421:ZN O *D XNOR2_X1
*CAP
1 *575:B1 0
2 *422:B 3.83917e-05
3 *421:ZN 0.000121367
4 *63:12 0.000159758
5 *422:B *575:B2 5.67661e-05
6 *421:A *63:12 4.29135e-05
7 *575:A *63:12 0
*RES
1 *421:ZN *63:12 28.5 
2 *63:12 *422:B 20.0714 
3 *63:12 *575:B1 5 
*END

*D_NET *64 0.000468129
*CONN
*I *424:A2 I *D NOR2_X1
*I *577:B1 I *D AOI21_X1
*I *423:A2 I *D NAND2_X1
*I *422:Z O *D XOR2_X1
*CAP
1 *424:A2 0
2 *577:B1 0
3 *423:A2 3.25433e-05
4 *422:Z 0.000123927
5 *64:12 6.18052e-05
6 *64:10 0.000153189
7 *423:A2 *578:B 2.16603e-05
8 *64:10 *210:10 0
9 *423:A1 *423:A2 1.58752e-05
10 *424:A1 *64:10 1.28122e-06
11 *60:22 *64:10 1.94663e-05
12 *60:24 *423:A2 9.91569e-06
13 *60:24 *64:10 1.10195e-05
14 *60:24 *64:12 1.74456e-05
*RES
1 *422:Z *64:10 23.0714 
2 *64:10 *64:12 2.96429 
3 *64:12 *423:A2 15 
4 *64:12 *577:B1 10 
5 *64:10 *424:A2 10 
*END

*D_NET *65 0.000842052
*CONN
*I *606:C1 I *D OAI221_X1
*I *430:A1 I *D NAND2_X1
*I *423:ZN O *D NAND2_X1
*CAP
1 *606:C1 9.51268e-05
2 *430:A1 4.89915e-05
3 *423:ZN 7.86669e-05
4 *65:14 0.000222785
5 *430:A1 *430:A2 1.21774e-06
6 *430:A1 *508:B2 1.28574e-05
7 *430:A1 *578:B 1.32323e-05
8 *606:C1 *578:A 0.000277675
9 *65:14 *508:B2 2.83434e-06
10 *65:14 *578:A 1.88334e-06
11 *65:14 *578:B 8.55494e-05
12 *65:14 *606:B1 1.23214e-06
*RES
1 *423:ZN *65:14 25.1071 
2 *65:14 *430:A1 10.75 
3 *65:14 *606:C1 30.8571 
*END

*D_NET *66 0.000392671
*CONN
*I *508:B2 I *D OAI21_X1
*I *424:ZN O *D NOR2_X1
*CAP
1 *508:B2 0.000186145
2 *424:ZN 0.000186145
3 *508:B2 *577:A 4.47286e-06
4 *508:B2 *578:B 0
5 *508:B2 *595:C2 0
6 *508:B2 *149:14 2.16072e-07
7 *508:B2 *210:10 0
8 *430:A1 *508:B2 1.28574e-05
9 *65:14 *508:B2 2.83434e-06
*RES
1 *424:ZN *508:B2 29.3214 
*END

*D_NET *67 9.23191e-05
*CONN
*I *428:A1 I *D NOR3_X1
*I *425:Z O *D XOR2_X1
*CAP
1 *428:A1 3.44779e-05
2 *425:Z 3.44779e-05
3 *428:A1 *425:A 3.9388e-06
4 *428:A1 *425:B 6.71316e-06
5 *428:A1 *428:A3 1.27114e-05
*RES
1 *425:Z *428:A1 14.1786 
*END

*D_NET *68 0.00018573
*CONN
*I *428:A2 I *D NOR3_X1
*I *426:Z O *D XOR2_X1
*CAP
1 *428:A2 5.08255e-05
2 *426:Z 5.08255e-05
3 *428:A2 *426:A 5.11118e-06
4 *428:A2 *427:A 4.38826e-05
5 *428:A2 *70:14 2.25294e-05
6 *428:A2 *70:31 1.88334e-06
7 *428:A2 *117:10 1.06727e-05
*RES
1 *426:Z *428:A2 27.2143 
*END

*D_NET *69 0.000211509
*CONN
*I *428:A3 I *D NOR3_X1
*I *427:Z O *D XOR2_X1
*CAP
1 *428:A3 7.8414e-05
2 *427:Z 7.8414e-05
3 *428:A3 *425:A 2.14856e-06
4 *428:A3 *425:B 2.87703e-06
5 *428:A3 *427:A 3.69443e-05
6 *428:A1 *428:A3 1.27114e-05
*RES
1 *427:Z *428:A3 19.6786 
*END

*D_NET *70 0.00738802
*CONN
*I *537:B2 I *D AOI21_X1
*I *486:A1 I *D OR3_X1
*I *568:B2 I *D AOI221_X1
*I *429:A I *D INV_X1
*I *430:A2 I *D NAND2_X1
*I *428:ZN O *D NOR3_X1
*CAP
1 *537:B2 0.000156887
2 *486:A1 4.27867e-05
3 *568:B2 0.0001505
4 *429:A 7.61952e-06
5 *430:A2 1.67727e-05
6 *428:ZN 0
7 *70:80 0.000571487
8 *70:67 0.000731118
9 *70:44 0.000424231
10 *70:42 0.000302916
11 *70:31 0.000388903
12 *70:16 0.000723871
13 *70:14 0.000944049
14 *70:6 0.000315318
15 *429:A *427:B 9.62051e-07
16 *430:A2 *149:14 0
17 *486:A1 *486:A2 2.39679e-06
18 *486:A1 *486:A3 3.37286e-06
19 *486:A1 *116:44 1.84823e-05
20 *486:A1 *122:12 9.57492e-07
21 *486:A1 *123:8 0.000144024
22 *486:A1 *142:18 9.30875e-05
23 *537:B2 *538:A 2.75346e-06
24 *537:B2 *538:B2 0
25 *537:B2 *97:23 0
26 *537:B2 *168:14 2.43548e-06
27 *537:B2 *256:14 0
28 *537:B2 *261:8 0
29 *568:B2 *491:B 0
30 *568:B2 *492:B 0
31 *568:B2 *565:A 2.41394e-05
32 *568:B2 *568:A 8.02532e-06
33 *568:B2 *568:B1 2.75346e-06
34 *568:B2 *117:10 1.91181e-06
35 *70:14 *426:A 1.32323e-05
36 *70:14 *426:B 0
37 *70:14 *427:A 1.43761e-05
38 *70:14 *487:A 8.12683e-05
39 *70:14 *117:10 6.08869e-06
40 *70:14 *349:51 0
41 *70:16 *497:A 0
42 *70:16 *497:B 0
43 *70:16 *583:A1 0
44 *70:16 *583:A2 0
45 *70:16 *584:A 3.79205e-05
46 *70:16 *584:B 3.09411e-06
47 *70:16 *585:A 3.89107e-05
48 *70:16 *587:B1 0
49 *70:16 *587:B2 0
50 *70:16 *596:A 0
51 *70:16 *149:14 0
52 *70:16 *220:12 0
53 *70:16 *264:8 0
54 *70:16 *349:51 0
55 *70:16 *349:75 0
56 *70:31 *425:B 0.000116485
57 *70:31 *426:B 0
58 *70:31 *117:10 4.01087e-05
59 *70:42 *425:B 5.93802e-05
60 *70:42 *482:B 1.20697e-05
61 *70:42 *483:A 4.37715e-05
62 *70:42 *483:B 5.58941e-05
63 *70:42 *491:B 0
64 *70:42 *492:B 0
65 *70:42 *493:A 0.00014161
66 *70:42 *494:A1 4.43868e-06
67 *70:42 *494:A2 0.000183263
68 *70:42 *494:A3 8.22158e-05
69 *70:42 *117:10 0.000107564
70 *70:67 *492:B 0
71 *70:67 *501:A3 7.27198e-05
72 *70:67 *565:A 1.88335e-05
73 *70:67 *136:18 0.000217903
74 *70:80 *116:44 1.52083e-06
75 *70:80 *116:55 0.000124543
76 *70:80 *123:8 0.000658777
77 *70:80 *142:49 0
78 *70:80 *354:8 0
79 *70:80 *354:42 0
80 *428:A2 *70:14 2.25294e-05
81 *428:A2 *70:31 1.88334e-06
82 *430:A1 *430:A2 1.21774e-06
83 *1:70 *568:B2 0.000144641
84 *1:90 *70:67 0
85 *9:46 *568:B2 0
86 *11:30 *70:80 0
*RES
1 *428:ZN *70:6 10 
2 *70:6 *70:14 32.1786 
3 *70:14 *70:16 71.5 
4 *70:16 *430:A2 6.96429 
5 *70:6 *70:31 12.7857 
6 *70:31 *429:A 10.75 
7 *70:31 *70:42 49.7857 
8 *70:42 *70:44 5 
9 *70:44 *568:B2 35.1786 
10 *70:44 *70:67 40.25 
11 *70:67 *486:A1 18.9643 
12 *70:67 *70:80 58.6072 
13 *70:80 *537:B2 25.75 
*END

*D_NET *71 0.00850264
*CONN
*I *548:C1 I *D OAI211_X1
*I *559:B2 I *D OAI21_X1
*I *518:B2 I *D OAI21_X1
*I *528:C1 I *D OAI221_X1
*I *595:C1 I *D OAI221_X1
*I *429:ZN O *D INV_X1
*CAP
1 *548:C1 0.000122226
2 *559:B2 6.59687e-05
3 *518:B2 4.56177e-06
4 *528:C1 3.47223e-05
5 *595:C1 3.58902e-05
6 *429:ZN 1.67462e-05
7 *71:53 0.000792946
8 *71:35 0.000396104
9 *71:31 0.000395903
10 *71:27 0.0003577
11 *71:14 0.00036363
12 *71:12 0.000834179
13 *71:10 0.000834179
14 *71:8 0.000621497
15 *518:B2 *518:B1 1.21774e-06
16 *528:C1 *528:C2 2.11452e-05
17 *548:C1 *541:A2 6.39357e-05
18 *548:C1 *177:14 2.75346e-06
19 *548:C1 *185:20 7.16188e-07
20 *548:C1 *256:12 5.90776e-05
21 *548:C1 *260:8 0.000127922
22 *559:B2 *559:B1 8.43215e-07
23 *559:B2 *91:27 0
24 *559:B2 *256:12 1.0443e-05
25 *595:C1 *586:A3 6.48216e-07
26 *595:C1 *587:B1 5.56848e-05
27 *595:C1 *587:B2 6.78878e-05
28 *595:C1 *595:C2 6.46697e-06
29 *595:C1 *114:27 2.96955e-05
30 *595:C1 *215:10 3.81944e-05
31 *71:8 *117:10 5.67661e-05
32 *71:8 *351:90 3.13512e-06
33 *71:12 *490:A3 0
34 *71:12 *498:B 0
35 *71:12 *499:A2 1.28122e-06
36 *71:12 *499:A3 0
37 *71:12 *583:A1 0
38 *71:12 *586:A1 4.9678e-06
39 *71:12 *586:A2 4.32144e-07
40 *71:12 *594:B2 0
41 *71:12 *595:A 0
42 *71:27 *507:C1 0
43 *71:27 *114:27 0.000454023
44 *71:27 *215:10 0.000108205
45 *71:27 *262:8 0.000116956
46 *71:27 *263:10 0
47 *71:27 *263:12 0
48 *71:35 *434:A 0
49 *71:35 *511:A3 0.000146149
50 *71:35 *517:A1 3.50334e-05
51 *71:35 *518:A 0.000119619
52 *71:35 *107:10 0
53 *71:35 *116:61 0
54 *71:35 *263:10 6.32461e-06
55 *71:53 *484:B 4.85196e-05
56 *71:53 *541:A2 0.000233329
57 *71:53 *117:10 0.00168929
58 *71:53 *351:90 1.6247e-05
59 *71:53 *351:99 1.23077e-06
60 *589:A2 *71:12 0
61 *6:36 *518:B2 5.50692e-06
62 *6:36 *71:31 3.90891e-05
63 *8:70 *71:12 0
64 *13:41 *528:C1 5.36507e-05
65 *14:21 *518:B2 0
66 *14:21 *71:31 0
*RES
1 *429:ZN *71:8 12.9643 
2 *71:8 *71:10 5 
3 *71:10 *71:12 79.75 
4 *71:12 *71:14 5 
5 *71:14 *595:C1 16.75 
6 *71:14 *71:27 51.1429 
7 *71:27 *71:31 8.75 
8 *71:31 *71:35 49.3572 
9 *71:35 *528:C1 15.25 
10 *71:31 *518:B2 5.75 
11 *71:8 *71:53 101.357 
12 *71:53 *559:B2 16.75 
13 *71:53 *548:C1 28.3214 
*END

*D_NET *72 8.54951e-05
*CONN
*I *508:B1 I *D OAI21_X1
*I *430:ZN O *D NAND2_X1
*CAP
1 *508:B1 4.27475e-05
2 *430:ZN 4.27475e-05
3 *508:B1 *595:C2 0
4 *508:B1 *263:12 0
*RES
1 *430:ZN *508:B1 24.3214 
*END

*D_NET *73 0.000318641
*CONN
*I *433:B I *D XNOR2_X1
*I *432:A2 I *D NOR2_X1
*I *431:ZN O *D XNOR2_X1
*CAP
1 *433:B 5.79882e-05
2 *432:A2 1.51295e-05
3 *431:ZN 5.59901e-05
4 *73:10 0.000129108
5 *432:A2 *467:A 6.99525e-06
6 *432:A2 *467:B1 0
7 *433:B *518:B1 1.32795e-05
8 *433:B *75:8 2.16072e-07
9 *73:10 *431:B 6.32202e-06
10 *73:10 *434:B 0
11 *73:10 *467:B1 0
12 *432:A1 *433:B 3.55154e-06
13 *6:34 *433:B 5.01336e-06
14 *7:17 *73:10 0
15 *7:58 *73:10 0
16 *14:21 *73:10 7.9624e-06
17 *60:22 *432:A2 1.55645e-05
18 *60:22 *73:10 1.52083e-06
*RES
1 *431:ZN *73:10 15.3929 
2 *73:10 *432:A2 12.2857 
3 *73:10 *433:B 16.6071 
*END

*D_NET *74 0.00019108
*CONN
*I *467:A I *D AOI21_X1
*I *432:ZN O *D NOR2_X1
*CAP
1 *467:A 7.01684e-05
2 *432:ZN 7.01684e-05
3 *467:A *467:B1 1.32323e-05
4 *432:A2 *467:A 6.99525e-06
5 *6:34 *467:A 2.00179e-05
6 *60:22 *467:A 1.04975e-05
*RES
1 *432:ZN *467:A 28.3929 
*END

*D_NET *75 0.000309538
*CONN
*I *434:B I *D XNOR2_X1
*I *467:B1 I *D AOI21_X1
*I *433:ZN O *D XNOR2_X1
*CAP
1 *434:B 4.08164e-05
2 *467:B1 7.86652e-05
3 *433:ZN 1.50655e-05
4 *75:8 0.000134547
5 *434:B *431:B 0
6 *467:B1 *109:12 8.33759e-07
7 *75:8 *518:B1 2.42461e-05
8 *432:A2 *467:B1 0
9 *433:A *75:8 1.91498e-06
10 *433:B *75:8 2.16072e-07
11 *467:A *467:B1 1.32323e-05
12 *6:34 *75:8 0
13 *6:36 *75:8 0
14 *73:10 *434:B 0
15 *73:10 *467:B1 0
*RES
1 *433:ZN *75:8 12.25 
2 *75:8 *467:B1 17.6071 
3 *75:8 *434:B 13.6429 
*END

*D_NET *76 0.000126487
*CONN
*I *435:A I *D INV_X1
*I *434:ZN O *D XNOR2_X1
*CAP
1 *435:A 4.3433e-05
2 *434:ZN 4.3433e-05
3 *435:A *434:A 0
4 *7:58 *435:A 3.96215e-05
*RES
1 *434:ZN *435:A 15.3571 
*END

*D_NET *77 0.000179007
*CONN
*I *510:A1 I *D OR3_X1
*I *466:A I *D OAI21_X1
*I *435:ZN O *D INV_X1
*CAP
1 *510:A1 2.14476e-05
2 *466:A 0
3 *435:ZN 6.3912e-05
4 *77:8 8.53595e-05
5 *77:8 *466:B1 2.39679e-06
6 *77:8 *108:17 4.12459e-06
7 *7:58 *77:8 1.76665e-06
*RES
1 *435:ZN *77:8 11.7143 
2 *77:8 *466:A 5 
3 *77:8 *510:A1 7.28572 
*END

*D_NET *78 0.000451558
*CONN
*I *437:B I *D XNOR2_X1
*I *465:B1 I *D OAI21_X1
*I *436:ZN O *D XNOR2_X1
*CAP
1 *437:B 0
2 *465:B1 4.70046e-05
3 *436:ZN 7.47691e-05
4 *78:8 0.000121774
5 *465:B1 *465:A 7.9845e-05
6 *417:C2 *465:B1 0
7 *5:31 *465:B1 1.32348e-05
8 *5:31 *78:8 8.60819e-05
9 *13:41 *465:B1 5.52959e-06
10 *13:41 *78:8 2.33189e-05
11 *58:10 *465:B1 0
*RES
1 *436:ZN *78:8 15.5357 
2 *78:8 *465:B1 21.25 
3 *78:8 *437:B 5 
*END

*D_NET *79 0.000281205
*CONN
*I *438:A2 I *D NAND2_X1
*I *439:B I *D XNOR2_X1
*I *437:ZN O *D XNOR2_X1
*CAP
1 *438:A2 1.19753e-05
2 *439:B 9.81583e-05
3 *437:ZN 2.08319e-05
4 *79:6 0.000130966
5 *439:B *439:A 1.92742e-05
6 *5:31 *438:A2 0
7 *5:31 *439:B 0
8 *5:46 *439:B 0
*RES
1 *437:ZN *79:6 7.28572 
2 *79:6 *439:B 14.3214 
3 *79:6 *438:A2 6.25 
*END

*D_NET *80 0.000261159
*CONN
*I *465:A I *D OAI21_X1
*I *438:ZN O *D NAND2_X1
*CAP
1 *465:A 8.87835e-05
2 *438:ZN 8.87835e-05
3 *465:A *528:C2 2.52965e-06
4 *465:B1 *465:A 7.9845e-05
5 *465:B2 *465:A 1.21774e-06
6 *58:10 *465:A 0
*RES
1 *438:ZN *465:A 29.8214 
*END

*D_NET *81 0.000559588
*CONN
*I *520:A1 I *D NAND3_X1
*I *464:A I *D AOI21_X1
*I *439:ZN O *D XNOR2_X1
*CAP
1 *520:A1 7.67927e-05
2 *464:A 3.02303e-05
3 *439:ZN 0.000163785
4 *81:12 0.000270808
5 *464:A *439:A 0
6 *464:A *464:B1 2.39679e-06
7 *464:A *116:80 9.08971e-06
8 *520:A1 *520:A2 2.75346e-06
9 *520:A1 *116:80 3.73261e-06
10 *81:12 *439:A 0
*RES
1 *439:ZN *81:12 31.9286 
2 *81:12 *464:A 8.25 
3 *81:12 *520:A1 11.8929 
*END

*D_NET *82 0.00034635
*CONN
*I *441:A2 I *D NAND2_X1
*I *442:B I *D XNOR2_X1
*I *440:Z O *D XOR2_X1
*CAP
1 *441:A2 4.31978e-05
2 *442:B 0
3 *440:Z 3.48928e-05
4 *82:8 7.80905e-05
5 *441:A2 *440:B 8.22137e-05
6 *82:8 *440:B 0.000107955
*RES
1 *440:Z *82:8 15.6786 
2 *82:8 *442:B 10 
3 *82:8 *441:A2 15.5714 
*END

*D_NET *83 0.000155876
*CONN
*I *444:A I *D OAI21_X1
*I *441:ZN O *D NAND2_X1
*CAP
1 *444:A 5.89057e-05
2 *441:ZN 5.89057e-05
3 *444:A *440:B 4.24673e-07
4 *444:A *444:B1 7.19036e-06
5 *444:A *561:A 2.9779e-06
6 *444:A *561:B 2.52965e-06
7 *444:A *562:A 1.57172e-05
8 *444:A *84:10 8.69284e-06
9 *444:A *84:21 5.3197e-07
*RES
1 *441:ZN *444:A 26.4643 
*END

*D_NET *84 0.000605766
*CONN
*I *443:B1 I *D AOI21_X1
*I *561:B I *D XNOR2_X1
*I *444:B1 I *D OAI21_X1
*I *442:ZN O *D XNOR2_X1
*CAP
1 *443:B1 3.72525e-05
2 *561:B 4.27554e-05
3 *444:B1 7.17197e-06
4 *442:ZN 6.2022e-05
5 *84:21 9.89248e-05
6 *84:10 8.81108e-05
7 *443:B1 *384:A 6.38328e-07
8 *443:B1 *440:B 0
9 *443:B1 *258:12 0
10 *561:B *561:A 5.8781e-05
11 *561:B *562:A 0
12 *561:B *86:10 8.30282e-06
13 *84:10 *383:A 2.94455e-05
14 *84:10 *562:A 3.64244e-05
15 *84:21 *440:B 0
16 *441:A1 *84:10 0
17 *443:B2 *443:B1 4.24402e-05
18 *443:B2 *84:10 2.96072e-05
19 *443:B2 *84:21 3.91943e-05
20 *444:A *444:B1 7.19036e-06
21 *444:A *561:B 2.52965e-06
22 *444:A *84:10 8.69284e-06
23 *444:A *84:21 5.3197e-07
24 *1:37 *84:10 5.74951e-06
*RES
1 *442:ZN *84:10 18.9286 
2 *84:10 *444:B1 10.75 
3 *84:10 *84:21 2.28572 
4 *84:21 *561:B 16.1786 
5 *84:21 *443:B1 14.3929 
*END

*D_NET *85 0.000469011
*CONN
*I *449:B2 I *D OAI21_X1
*I *550:A1 I *D NOR3_X1
*I *443:ZN O *D AOI21_X1
*CAP
1 *449:B2 8.15016e-06
2 *550:A1 1.78288e-05
3 *443:ZN 0.00017907
4 *85:6 0.000205049
5 *449:B2 *551:A2 1.76665e-06
6 *550:A1 *551:A2 1.13571e-05
7 *85:6 *384:A 0
8 *85:6 *449:B1 6.48216e-07
9 *85:6 *561:A 1.19252e-05
10 *85:6 *562:B 2.07643e-05
11 *85:6 *86:10 1.2452e-05
*RES
1 *443:ZN *85:6 24.25 
2 *85:6 *550:A1 7.28572 
3 *85:6 *449:B2 5.92857 
*END

*D_NET *86 0.000654125
*CONN
*I *550:A2 I *D NOR3_X1
*I *449:B1 I *D OAI21_X1
*I *444:ZN O *D OAI21_X1
*CAP
1 *550:A2 6.93272e-06
2 *449:B1 4.06226e-05
3 *444:ZN 0.000209186
4 *86:10 0.000256741
5 *449:B1 *550:A3 9.37424e-05
6 *449:B1 *90:12 2.39679e-06
7 *550:A2 *569:B1 0
8 *86:10 *561:A 0
9 *86:10 *562:A 0
10 *86:10 *562:B 0
11 *86:10 *569:B1 2.31008e-05
12 *561:B *86:10 8.30282e-06
13 *85:6 *449:B1 6.48216e-07
14 *85:6 *86:10 1.2452e-05
*RES
1 *444:ZN *86:10 27.4643 
2 *86:10 *449:B1 20.75 
3 *86:10 *550:A2 5.75 
*END

*D_NET *87 0.000485925
*CONN
*I *446:A2 I *D AND2_X1
*I *447:B I *D XNOR2_X1
*I *445:Z O *D XOR2_X1
*CAP
1 *446:A2 2.57407e-05
2 *447:B 5.24865e-05
3 *445:Z 4.60465e-05
4 *87:6 0.000124274
5 *446:A2 *450:A 3.02372e-05
6 *446:A2 *450:B1 0
7 *447:B *448:B 0
8 *447:B *89:10 8.58686e-06
9 *87:6 *559:B1 7.72537e-06
10 *382:A *447:B 0
11 *404:B2 *446:A2 2.96955e-05
12 *446:A1 *446:A2 2.39679e-06
13 *549:A *447:B 2.52965e-06
14 *549:B *87:6 7.72792e-06
15 *2:23 *446:A2 6.62646e-05
16 *2:34 *87:6 0
17 *41:10 *446:A2 8.22137e-05
*RES
1 *445:Z *87:6 9.75 
2 *87:6 *447:B 10.25 
3 *87:6 *446:A2 21.4286 
*END

*D_NET *88 0.000139186
*CONN
*I *450:A I *D AOI21_X1
*I *446:ZN O *D AND2_X1
*CAP
1 *450:A 1.86524e-05
2 *446:ZN 1.86524e-05
3 *450:A *559:B1 8.75656e-06
4 *446:A2 *450:A 3.02372e-05
5 *2:23 *450:A 4.24402e-05
6 *41:10 *450:A 2.04476e-05
*RES
1 *446:ZN *450:A 24.3214 
*END

*D_NET *89 0.000486457
*CONN
*I *448:B I *D XOR2_X1
*I *450:B1 I *D AOI21_X1
*I *447:ZN O *D XNOR2_X1
*CAP
1 *448:B 3.3799e-05
2 *450:B1 3.17697e-05
3 *447:ZN 6.88147e-05
4 *89:10 0.000134383
5 *448:B result[3] 0
6 *450:B1 result[3] 0
7 *450:B1 *448:A 0
8 *450:B1 *90:12 0
9 *89:10 *90:12 0
10 *382:A *89:10 0
11 *404:B2 *89:10 5.06473e-05
12 *446:A1 *450:B1 6.38328e-07
13 *446:A2 *450:B1 0
14 *447:A *89:10 6.92245e-06
15 *447:B *448:B 0
16 *447:B *89:10 8.58686e-06
17 *41:10 *450:B1 4.26902e-05
18 *41:10 *89:10 0.000108205
*RES
1 *447:ZN *89:10 20.6429 
2 *89:10 *450:B1 14.0357 
3 *89:10 *448:B 13.25 
*END

*D_NET *90 0.000819649
*CONN
*I *449:A I *D OAI21_X1
*I *550:A3 I *D NOR3_X1
*I *448:Z O *D XOR2_X1
*CAP
1 *449:A 0
2 *550:A3 4.83638e-05
3 *448:Z 0.000195326
4 *90:12 0.000243689
5 *550:A3 *258:10 0
6 *90:12 *448:A 0.000125753
7 *90:12 *91:8 1.57087e-05
8 *90:12 *258:10 9.46688e-05
9 *90:12 *258:12 0
10 *449:B1 *550:A3 9.37424e-05
11 *449:B1 *90:12 2.39679e-06
12 *450:B1 *90:12 0
13 *41:10 *90:12 0
14 *89:10 *90:12 0
*RES
1 *448:Z *90:12 41.8929 
2 *90:12 *550:A3 21.3571 
3 *90:12 *449:A 5 
*END

*D_NET *91 0.00150632
*CONN
*I *455:B2 I *D AOI21_X1
*I *540:A1 I *D AND3_X1
*I *558:B2 I *D AOI221_X1
*I *449:ZN O *D OAI21_X1
*CAP
1 *455:B2 4.87005e-05
2 *540:A1 9.32494e-06
3 *558:B2 7.61298e-05
4 *449:ZN 9.50743e-05
5 *91:27 0.0004412
6 *91:8 0.000554379
7 *455:B2 *455:B1 8.42038e-05
8 *455:B2 *540:A2 0
9 *455:B2 *541:A3 2.08098e-06
10 *540:A1 result[3] 1.28122e-06
11 *540:A1 *540:A2 5.50692e-06
12 *540:A1 *92:8 7.72792e-06
13 *558:B2 *551:A1 1.13571e-05
14 *558:B2 *558:B1 3.22834e-06
15 *558:B2 *117:18 4.08249e-06
16 *91:8 *551:A2 3.99416e-05
17 *91:8 *623:A1 0
18 *91:8 *623:A3 0
19 *91:8 *117:18 0
20 *91:8 *259:6 0
21 *91:8 *259:10 0
22 *91:27 *541:A3 8.41155e-06
23 *91:27 *548:A 4.59278e-05
24 *91:27 *558:A 2.90713e-05
25 *91:27 *558:C1 1.26998e-05
26 *91:27 *177:14 8.1183e-06
27 *91:27 *185:20 0
28 *91:27 *354:52 2.16569e-06
29 *559:B2 *91:27 0
30 *2:36 *455:B2 0
31 *2:36 *91:27 0
32 *90:12 *91:8 1.57087e-05
*RES
1 *449:ZN *91:8 16.6786 
2 *91:8 *558:B2 14.5714 
3 *91:8 *91:27 48.6786 
4 *91:27 *540:A1 11.25 
5 *91:27 *455:B2 16.25 
*END

*D_NET *92 0.000784394
*CONN
*I *540:A2 I *D AND3_X1
*I *455:B1 I *D AOI21_X1
*I *450:ZN O *D AOI21_X1
*CAP
1 *540:A2 5.04766e-06
2 *455:B1 3.04233e-05
3 *450:ZN 0.00025619
4 *92:8 0.000291661
5 *455:B1 *454:A 2.52965e-06
6 *455:B1 *540:A3 9.44188e-05
7 *455:B1 *541:A3 4.44127e-06
8 *92:8 result[3] 0
9 *92:8 *454:A 0
10 *92:8 *558:C1 2.24327e-06
11 *455:B2 *455:B1 8.42038e-05
12 *455:B2 *540:A2 0
13 *540:A1 *540:A2 5.50692e-06
14 *540:A1 *92:8 7.72792e-06
15 *2:34 *92:8 0
16 *10:32 *455:B1 0
*RES
1 *450:ZN *92:8 30.1786 
2 *92:8 *455:B1 21.4286 
3 *92:8 *540:A2 5.75 
*END

*D_NET *93 0.000397959
*CONN
*I *456:B1 I *D OAI21_X1
*I *452:B I *D XNOR2_X1
*I *451:ZN O *D XNOR2_X1
*CAP
1 *456:B1 4.50648e-05
2 *452:B 3.99404e-05
3 *451:ZN 6.66879e-06
4 *93:8 9.16739e-05
5 *456:B1 *451:B 0
6 *93:8 *451:B 2.39679e-06
7 *456:B2 *456:B1 8.43215e-07
8 *3:29 *452:B 0.00012095
9 *3:29 *456:B1 9.04209e-05
*RES
1 *451:ZN *93:8 10.75 
2 *93:8 *452:B 16.3571 
3 *93:8 *456:B1 16.25 
*END

*D_NET *94 0.000188876
*CONN
*I *453:A2 I *D NAND2_X1
*I *454:B I *D XNOR2_X1
*I *452:ZN O *D XNOR2_X1
*CAP
1 *453:A2 4.05493e-05
2 *454:B 8.35802e-06
3 *452:ZN 3.55745e-05
4 *94:6 8.44818e-05
5 *454:B *454:A 1.37673e-05
6 *94:6 *451:B 0
7 *94:6 *454:A 5.50692e-06
8 *94:6 *456:A 0
9 *11:19 *94:6 6.38328e-07
*RES
1 *452:ZN *94:6 8.75 
2 *94:6 *454:B 6.25 
3 *94:6 *453:A2 9.32143 
*END

*D_NET *95 0.000288768
*CONN
*I *456:A I *D OAI21_X1
*I *453:ZN O *D NAND2_X1
*CAP
1 *456:A 6.13325e-05
2 *453:ZN 6.13325e-05
3 *456:A *451:B 8.50486e-06
4 *456:B2 *456:A 4.41894e-05
5 *3:29 *456:A 9.36313e-05
6 *11:19 *456:A 1.9777e-05
7 *94:6 *456:A 0
*RES
1 *453:ZN *456:A 29.25 
*END

*D_NET *96 0.00043672
*CONN
*I *455:A I *D AOI21_X1
*I *540:A3 I *D AND3_X1
*I *454:ZN O *D XNOR2_X1
*CAP
1 *455:A 0
2 *540:A3 2.4494e-05
3 *454:ZN 9.15028e-05
4 *96:10 0.000115997
5 *540:A3 *541:A3 3.07768e-05
6 *540:A3 *177:14 2.87087e-05
7 *96:10 *454:A 3.52579e-05
8 *96:10 *177:14 1.55645e-05
9 *455:B1 *540:A3 9.44188e-05
*RES
1 *454:ZN *96:10 20.5357 
2 *96:10 *540:A3 15.6786 
3 *96:10 *455:A 10 
*END

*D_NET *97 0.00129003
*CONN
*I *462:B2 I *D OAI21_X1
*I *530:A1 I *D NOR3_X1
*I *541:A1 I *D OR3_X1
*I *455:ZN O *D AOI21_X1
*CAP
1 *462:B2 7.78911e-06
2 *530:A1 0
3 *541:A1 1.62214e-05
4 *455:ZN 6.76153e-05
5 *97:23 0.000292536
6 *97:10 0.000368583
7 *462:B2 *530:A2 5.19786e-05
8 *462:B2 *530:A3 5.67661e-05
9 *541:A1 result[3] 1.11435e-06
10 *541:A1 *541:A2 2.39679e-06
11 *541:A1 *541:A3 2.25089e-06
12 *541:A1 *185:20 2.24327e-06
13 *97:10 *177:14 0.000211373
14 *97:23 result[3] 4.60791e-05
15 *97:23 *530:A2 1.72426e-05
16 *97:23 *530:A3 2.94455e-05
17 *97:23 *538:B2 2.35942e-05
18 *97:23 *185:20 3.23723e-07
19 *97:23 *256:12 0
20 *97:23 *261:8 9.24754e-05
21 *537:B2 *97:23 0
*RES
1 *455:ZN *97:10 26.1071 
2 *97:10 *541:A1 6.75 
3 *97:10 *97:23 38.75 
4 *97:23 *530:A1 10 
5 *97:23 *462:B2 12.9643 
*END

*D_NET *98 0.000737825
*CONN
*I *462:B1 I *D OAI21_X1
*I *530:A2 I *D NOR3_X1
*I *456:ZN O *D OAI21_X1
*CAP
1 *462:B1 6.34372e-06
2 *530:A2 3.88714e-05
3 *456:ZN 0.000239515
4 *98:10 0.00028473
5 *462:B1 *103:10 0
6 *530:A2 *530:A3 1.19474e-05
7 *530:A2 *261:8 0
8 *98:10 *530:A3 4.44127e-06
9 *98:10 *103:10 8.27554e-05
10 *98:10 *168:14 0
11 *462:B2 *530:A2 5.19786e-05
12 *97:23 *530:A2 1.72426e-05
*RES
1 *456:ZN *98:10 36.3929 
2 *98:10 *530:A2 15.75 
3 *98:10 *462:B1 10.75 
*END

*D_NET *99 0.000290085
*CONN
*I *458:A2 I *D NOR2_X1
*I *459:B I *D XNOR2_X1
*I *457:ZN O *D XNOR2_X1
*CAP
1 *458:A2 3.27744e-05
2 *459:B 3.80717e-05
3 *457:ZN 1.37911e-05
4 *99:8 8.46372e-05
5 *459:B *463:A 1.39839e-06
6 *459:B *101:10 2.38892e-05
7 *99:8 *457:B 1.77822e-05
8 *99:8 *463:A 0
9 *458:A1 *99:8 0
10 *4:36 *459:B 2.35942e-05
11 *4:36 *99:8 9.55318e-06
12 *12:34 *458:A2 4.45934e-05
*RES
1 *457:ZN *99:8 12.2857 
2 *99:8 *459:B 15.0714 
3 *99:8 *458:A2 14.25 
*END

*D_NET *100 0.000390556
*CONN
*I *463:A I *D AOI21_X1
*I *458:ZN O *D NOR2_X1
*CAP
1 *463:A 0.000157309
2 *458:ZN 0.000157309
3 *463:A *460:A 2.4792e-05
4 *463:A *463:B1 4.42208e-05
5 *459:B *463:A 1.39839e-06
6 *4:36 *463:A 5.52692e-06
7 *12:34 *463:A 0
8 *99:8 *463:A 0
*RES
1 *458:ZN *463:A 38.2857 
*END

*D_NET *101 0.000382896
*CONN
*I *463:B1 I *D AOI21_X1
*I *460:B I *D XNOR2_X1
*I *459:ZN O *D XNOR2_X1
*CAP
1 *463:B1 5.81131e-05
2 *460:B 2.59994e-05
3 *459:ZN 3.55278e-05
4 *101:10 0.00011964
5 *463:B1 *460:A 1.92526e-05
6 *463:B1 *463:B2 7.72792e-06
7 *459:B *101:10 2.38892e-05
8 *463:A *463:B1 4.42208e-05
9 *4:36 *101:10 2.94435e-05
10 *4:40 *460:B 1.16042e-05
11 *4:40 *101:10 7.47756e-06
*RES
1 *459:ZN *101:10 14.3929 
2 *101:10 *460:B 12.9643 
3 *101:10 *463:B1 17.8571 
*END

*D_NET *102 9.73799e-05
*CONN
*I *461:A I *D INV_X1
*I *460:ZN O *D XNOR2_X1
*CAP
1 *461:A 4.04624e-05
2 *460:ZN 4.04624e-05
3 *461:A *460:A 1.64551e-05
*RES
1 *460:ZN *461:A 14.6786 
*END

*D_NET *103 0.000681756
*CONN
*I *530:A3 I *D NOR3_X1
*I *462:A I *D OAI21_X1
*I *461:ZN O *D INV_X1
*CAP
1 *530:A3 4.45258e-05
2 *462:A 0
3 *461:ZN 0.000145018
4 *103:10 0.000189544
5 *530:A3 *538:B2 1.72084e-05
6 *530:A3 *104:12 5.67661e-05
7 *530:A3 *261:8 9.62051e-07
8 *103:10 *460:A 4.23771e-05
9 *103:10 *168:14 0
10 *462:B1 *103:10 0
11 *462:B2 *530:A3 5.67661e-05
12 *530:A2 *530:A3 1.19474e-05
13 *97:23 *530:A3 2.94455e-05
14 *98:10 *530:A3 4.44127e-06
15 *98:10 *103:10 8.27554e-05
*RES
1 *461:ZN *103:10 27.5714 
2 *103:10 *462:A 10 
3 *103:10 *530:A3 18.0357 
*END

*D_NET *104 0.00102195
*CONN
*I *520:A2 I *D NAND3_X1
*I *464:B1 I *D AOI21_X1
*I *531:A1 I *D NAND2_X1
*I *462:ZN O *D OAI21_X1
*CAP
1 *520:A2 5.09943e-06
2 *464:B1 3.69199e-05
3 *531:A1 0
4 *462:ZN 5.52098e-05
5 *104:23 0.000301813
6 *104:12 0.000315004
7 *464:B1 *439:A 0
8 *464:B1 *464:B2 5.48932e-05
9 *464:B1 *521:A2 4.12796e-06
10 *464:B1 *116:80 4.32144e-07
11 *520:A2 *105:12 4.79358e-06
12 *104:12 *538:B1 7.72537e-06
13 *104:12 *116:80 7.16188e-07
14 *104:12 *168:14 3.13376e-06
15 *104:12 *261:8 0
16 *104:23 *105:12 0.000118767
17 *104:23 *116:80 5.14013e-05
18 *464:A *464:B1 2.39679e-06
19 *520:A1 *520:A2 2.75346e-06
20 *530:A3 *104:12 5.67661e-05
*RES
1 *462:ZN *104:12 21.7143 
2 *104:12 *531:A1 5 
3 *104:12 *104:23 30.9286 
4 *104:23 *464:B1 19.3929 
5 *104:23 *520:A2 5.75 
*END

*D_NET *105 0.00079976
*CONN
*I *520:A3 I *D NAND3_X1
*I *464:B2 I *D AOI21_X1
*I *463:ZN O *D AOI21_X1
*CAP
1 *520:A3 0
2 *464:B2 2.15244e-05
3 *463:ZN 0.000129997
4 *105:12 0.000151521
5 *464:B2 *521:A2 7.98408e-05
6 *464:B2 *261:22 0
7 *105:12 *463:B2 7.69074e-05
8 *105:12 *116:80 0.000124093
9 *464:B1 *464:B2 5.48932e-05
10 *520:A2 *105:12 4.79358e-06
11 *4:40 *105:12 3.74224e-05
12 *104:23 *105:12 0.000118767
*RES
1 *463:ZN *105:12 38.5357 
2 *105:12 *464:B2 19.3214 
3 *105:12 *520:A3 5 
*END

*D_NET *106 0.00191019
*CONN
*I *528:B2 I *D OAI221_X1
*I *510:A2 I *D OR3_X1
*I *466:B1 I *D OAI21_X1
*I *464:ZN O *D AOI21_X1
*CAP
1 *528:B2 1.27566e-05
2 *510:A2 6.88034e-06
3 *466:B1 2.90071e-05
4 *464:ZN 7.46455e-05
5 *106:14 0.000232605
6 *106:8 0.00028412
7 *466:B1 *466:B2 6.86795e-05
8 *466:B1 *511:A1 2.75346e-06
9 *466:B1 *511:A3 0
10 *466:B1 *108:17 7.72537e-06
11 *528:B2 *528:A 3.09143e-06
12 *528:B2 *528:C2 4.32144e-07
13 *106:8 *521:A2 0.00014561
14 *106:8 *528:A 2.51997e-05
15 *106:8 *528:B1 6.51314e-05
16 *106:8 *116:61 0.000234447
17 *106:8 *116:80 4.47177e-05
18 *106:14 *511:A1 0
19 *106:14 *511:A2 0
20 *106:14 *511:A3 6.44574e-06
21 *106:14 *528:A 9.17381e-05
22 *106:14 *116:57 0
23 *106:14 *116:61 0.000481578
24 *106:14 *262:8 9.02271e-05
25 *77:8 *466:B1 2.39679e-06
*RES
1 *464:ZN *106:8 28.5714 
2 *106:8 *106:14 39.1072 
3 *106:14 *466:B1 19.3929 
4 *106:14 *510:A2 5.75 
5 *106:8 *528:B2 11.25 
*END

*D_NET *107 0.000794123
*CONN
*I *510:A3 I *D OR3_X1
*I *466:B2 I *D OAI21_X1
*I *465:ZN O *D OAI21_X1
*CAP
1 *510:A3 0
2 *466:B2 4.76759e-05
3 *465:ZN 0.000303101
4 *107:10 0.000350777
5 *466:B2 *511:A3 0
6 *466:B2 *108:17 6.32202e-06
7 *107:10 *511:A3 0
8 *107:10 *528:C2 1.75677e-05
9 *466:B1 *466:B2 6.86795e-05
10 *71:35 *107:10 0
*RES
1 *465:ZN *107:10 43.25 
2 *107:10 *466:B2 15.6786 
3 *107:10 *510:A3 10 
*END

*D_NET *108 0.0009787
*CONN
*I *473:A1 I *D NAND3_X1
*I *472:B2 I *D AOI21_X1
*I *511:A1 I *D NAND3_X1
*I *466:ZN O *D OAI21_X1
*CAP
1 *473:A1 1.10243e-05
2 *472:B2 5.56252e-05
3 *511:A1 3.69747e-05
4 *466:ZN 0
5 *108:17 0.00038054
6 *108:4 0.000350865
7 *472:B2 *471:A 0
8 *472:B2 *472:B1 7.07494e-05
9 *472:B2 *507:B2 2.26306e-06
10 *472:B2 *113:12 6.82202e-07
11 *472:B2 *149:14 6.03486e-06
12 *473:A1 *473:A2 7.72537e-06
13 *473:A1 *109:12 7.19036e-06
14 *511:A1 *511:A2 1.43807e-05
15 *108:17 *507:B2 2.26306e-06
16 *108:17 *263:10 0
17 *466:B1 *511:A1 2.75346e-06
18 *466:B1 *108:17 7.72537e-06
19 *466:B2 *108:17 6.32202e-06
20 *7:58 *511:A1 7.90853e-06
21 *7:58 *108:17 3.54695e-06
22 *77:8 *108:17 4.12459e-06
23 *106:14 *511:A1 0
*RES
1 *466:ZN *108:4 5 
2 *108:4 *511:A1 9.25 
3 *108:4 *108:17 39.5714 
4 *108:17 *472:B2 16.9286 
5 *108:17 *473:A1 11.25 
*END

*D_NET *109 0.000709675
*CONN
*I *472:B1 I *D AOI21_X1
*I *473:A2 I *D NAND3_X1
*I *467:ZN O *D AOI21_X1
*CAP
1 *472:B1 1.92178e-05
2 *473:A2 6.32747e-06
3 *467:ZN 0.000212136
4 *109:12 0.000237681
5 *472:B1 *473:A3 4.24402e-05
6 *472:B1 *507:B2 3.01743e-06
7 *472:B1 *113:12 7.72537e-06
8 *472:B1 *149:14 3.01743e-06
9 *109:12 *467:B2 7.353e-05
10 *467:B1 *109:12 8.33759e-07
11 *472:B2 *472:B1 7.07494e-05
12 *473:A1 *473:A2 7.72537e-06
13 *473:A1 *109:12 7.19036e-06
14 *15:39 *473:A2 6.48216e-07
15 *15:39 *109:12 1.74351e-05
*RES
1 *467:ZN *109:12 41.8214 
2 *109:12 *473:A2 5.75 
3 *109:12 *472:B1 19.3929 
*END

*D_NET *110 0.000446642
*CONN
*I *469:A2 I *D NOR2_X1
*I *470:B I *D XNOR2_X1
*I *468:ZN O *D XNOR2_X1
*CAP
1 *469:A2 3.88164e-05
2 *470:B 8.4795e-05
3 *468:ZN 3.93733e-05
4 *110:6 0.000162985
5 *470:B *579:A 2.14856e-06
6 *470:B *579:B1 0
7 *469:A1 *110:6 0
8 *470:A *470:B 0
9 *7:17 *469:A2 6.41837e-05
10 *7:23 *469:A2 4.24381e-05
11 *15:39 *470:B 0
12 *15:39 *110:6 0
13 *60:22 *469:A2 0
14 *60:22 *470:B 1.19024e-05
*RES
1 *468:ZN *110:6 8.75 
2 *110:6 *470:B 23.9643 
3 *110:6 *469:A2 20.6786 
*END

*D_NET *111 0.000192443
*CONN
*I *579:A I *D AOI21_X1
*I *469:ZN O *D NOR2_X1
*CAP
1 *579:A 7.8817e-05
2 *469:ZN 7.8817e-05
3 *579:A *579:B1 1.32323e-05
4 *579:A *579:B2 8.59073e-06
5 *579:A *112:8 0
6 *470:A *579:A 1.08378e-05
7 *470:B *579:A 2.14856e-06
*RES
1 *469:ZN *579:A 18.75 
*END

*D_NET *112 0.000247038
*CONN
*I *471:B I *D XNOR2_X1
*I *579:B1 I *D AOI21_X1
*I *470:ZN O *D XNOR2_X1
*CAP
1 *471:B 0
2 *579:B1 6.39916e-05
3 *470:ZN 4.98668e-05
4 *112:8 0.000113858
5 *579:B1 *579:B2 6.0887e-06
6 *470:B *579:B1 0
7 *579:A *579:B1 1.32323e-05
8 *579:A *112:8 0
9 *15:39 *112:8 0
*RES
1 *470:ZN *112:8 9.85714 
2 *112:8 *579:B1 21.9286 
3 *112:8 *471:B 5 
*END

*D_NET *113 0.000391024
*CONN
*I *472:A I *D AOI21_X1
*I *473:A3 I *D NAND3_X1
*I *471:ZN O *D XNOR2_X1
*CAP
1 *472:A 0
2 *473:A3 1.17162e-05
3 *471:ZN 0.000103773
4 *113:12 0.000115489
5 *473:A3 *507:B2 2.72417e-06
6 *473:A3 *149:14 1.045e-05
7 *113:12 *471:A 0
8 *472:B1 *473:A3 4.24402e-05
9 *472:B1 *113:12 7.72537e-06
10 *472:B2 *113:12 6.82202e-07
11 *15:39 *113:12 9.60231e-05
*RES
1 *471:ZN *113:12 27.8929 
2 *113:12 *473:A3 17.2857 
3 *113:12 *472:A 5 
*END

*D_NET *114 0.00158171
*CONN
*I *586:A1 I *D NOR3_X1
*I *587:B2 I *D OAI21_X1
*I *476:A1 I *D NOR2_X1
*I *472:ZN O *D AOI21_X1
*CAP
1 *586:A1 8.46531e-06
2 *587:B2 7.39457e-05
3 *476:A1 1.98183e-05
4 *472:ZN 8.55174e-05
5 *114:27 0.000186802
6 *114:14 0.000209726
7 *476:A1 *507:A 2.83077e-06
8 *476:A1 *507:B1 7.29164e-07
9 *586:A1 *586:A2 1.26998e-05
10 *587:B2 *586:A3 0.000131009
11 *587:B2 *587:B1 4.49575e-05
12 *587:B2 *595:B2 8.25592e-06
13 *587:B2 *220:12 1.52975e-05
14 *587:B2 *265:10 0
15 *114:14 *507:A 1.11792e-06
16 *114:14 *507:B1 1.52374e-05
17 *114:14 *507:B2 2.64142e-05
18 *114:14 *149:14 1.56073e-06
19 *114:14 *263:10 4.24402e-05
20 *114:27 *476:A2 4.66309e-05
21 *114:27 *595:B2 4.80378e-06
22 *114:27 *262:8 7.88496e-05
23 *595:C1 *587:B2 6.78878e-05
24 *595:C1 *114:27 2.96955e-05
25 *15:39 *114:14 8.02774e-06
26 *70:16 *587:B2 0
27 *71:12 *586:A1 4.9678e-06
28 *71:27 *114:27 0.000454023
*RES
1 *472:ZN *114:14 25.2857 
2 *114:14 *476:A1 7.17857 
3 *114:14 *114:27 30.3572 
4 *114:27 *587:B2 22.3571 
5 *114:27 *586:A1 11.25 
*END

*D_NET *115 0.000256629
*CONN
*I *507:B2 I *D AOI221_X1
*I *473:ZN O *D NAND3_X1
*CAP
1 *507:B2 6.73175e-05
2 *473:ZN 6.73175e-05
3 *507:B2 *471:A 0
4 *507:B2 *507:B1 2.75346e-06
5 *507:B2 *149:14 6.70982e-05
6 *507:B2 *263:10 1.51409e-05
7 *472:B1 *507:B2 3.01743e-06
8 *472:B2 *507:B2 2.26306e-06
9 *473:A3 *507:B2 2.72417e-06
10 *15:39 *507:B2 3.19164e-07
11 *108:17 *507:B2 2.26306e-06
12 *114:14 *507:B2 2.64142e-05
*RES
1 *473:ZN *507:B2 29.6071 
*END

*D_NET *116 0.00713519
*CONN
*I *511:A2 I *D NAND3_X1
*I *531:A2 I *D NAND2_X1
*I *521:A1 I *D NAND2_X1
*I *501:A1 I *D NOR4_X1
*I *588:A1 I *D NAND2_X1
*I *619:A2 I *D NOR4_X1
*I *474:ZN O *D NOR3_X1
*CAP
1 *511:A2 6.67466e-05
2 *531:A2 0
3 *521:A1 1.87366e-05
4 *501:A1 0
5 *588:A1 0.000382237
6 *619:A2 0.000159498
7 *474:ZN 0
8 *116:80 0.000329759
9 *116:61 0.000608671
10 *116:57 0.000775154
11 *116:55 0.000569419
12 *116:44 0.000307265
13 *116:42 0.00034759
14 *116:23 0.000746998
15 *116:4 0.000362747
16 *511:A2 *511:A3 2.89018e-05
17 *521:A1 *439:A 2.26268e-06
18 *521:A1 *521:A2 2.52965e-06
19 *588:A1 *497:B 0
20 *588:A1 *581:B 4.4596e-05
21 *588:A1 *583:A1 0
22 *588:A1 *594:B2 2.22688e-05
23 *588:A1 *595:B1 2.70833e-06
24 *588:A1 *596:B 1.30416e-05
25 *619:A2 *621:C2 8.43215e-07
26 *619:A2 *117:47 0
27 *619:A2 *252:12 2.07643e-05
28 *619:A2 *351:48 6.103e-05
29 *619:A2 *351:63 3.49085e-06
30 *116:23 *497:B 1.70715e-05
31 *116:23 *499:A2 5.4464e-05
32 *116:42 *496:B 4.33797e-05
33 *116:42 *497:B 7.40411e-05
34 *116:42 *499:A1 2.72417e-06
35 *116:42 *499:A2 0.000102626
36 *116:42 *123:72 3.72741e-05
37 *116:42 *141:8 3.35485e-06
38 *116:44 *501:A2 6.68441e-05
39 *116:44 *123:72 2.81526e-05
40 *116:44 *141:8 7.54357e-06
41 *116:44 *142:18 0.000488807
42 *116:55 *143:10 0
43 *116:55 *143:21 0
44 *116:57 *516:A2 2.23415e-06
45 *116:57 *517:A3 0
46 *116:57 *143:25 4.95679e-05
47 *116:61 *262:8 1.44489e-05
48 *116:80 *521:A2 1.0495e-05
49 *116:80 *538:B1 6.77793e-06
50 *116:80 *261:22 4.72773e-05
51 *464:A *116:80 9.08971e-06
52 *464:B1 *116:80 4.32144e-07
53 *486:A1 *116:44 1.84823e-05
54 *511:A1 *511:A2 1.43807e-05
55 *520:A1 *116:80 3.73261e-06
56 *619:A1 *619:A2 0
57 *619:A1 *116:23 0
58 *1:92 *116:23 4.15972e-05
59 *1:92 *116:42 1.41881e-05
60 *1:92 *116:44 0
61 *1:92 *116:55 0
62 *7:58 *511:A2 8.1352e-06
63 *7:58 *116:57 2.77946e-05
64 *70:80 *116:44 1.52083e-06
65 *70:80 *116:55 0.000124543
66 *71:35 *116:61 0
67 *104:12 *116:80 7.16188e-07
68 *104:23 *116:80 5.14013e-05
69 *105:12 *116:80 0.000124093
70 *106:8 *116:61 0.000234447
71 *106:8 *116:80 4.47177e-05
72 *106:14 *511:A2 0
73 *106:14 *116:57 0
74 *106:14 *116:61 0.000481578
*RES
1 *474:ZN *116:4 5 
2 *116:4 *619:A2 34.9286 
3 *116:4 *116:23 29.1429 
4 *116:23 *588:A1 49.6786 
5 *116:23 *116:42 26.5893 
6 *116:42 *116:44 30.4464 
7 *116:44 *501:A1 10 
8 *116:44 *116:55 22.2143 
9 *116:55 *116:57 46.25 
10 *116:57 *116:61 45.9643 
11 *116:61 *521:A1 11.75 
12 *116:61 *116:80 48 
13 *116:80 *531:A2 5 
14 *116:57 *511:A2 22.1071 
*END

*D_NET *117 0.00854125
*CONN
*I *476:A2 I *D NOR2_X1
*I *622:C1 I *D OAI221_X1
*I *541:A2 I *D OR3_X1
*I *551:A1 I *D OR2_X1
*I *569:B2 I *D OAI21_X1
*I *475:ZN O *D OR3_X1
*CAP
1 *476:A2 0.000443553
2 *622:C1 6.0557e-05
3 *541:A2 0.000282935
4 *551:A1 4.22924e-05
5 *569:B2 4.99232e-05
6 *475:ZN 0
7 *117:66 0.000830813
8 *117:62 0.000493884
9 *117:47 0.000596079
10 *117:18 0.000203138
11 *117:10 0.00105664
12 *117:8 0.000668895
13 *117:4 0.000435009
14 *476:A2 *262:8 0.000121274
15 *541:A2 result[3] 5.97722e-05
16 *541:A2 *541:A3 2.39679e-06
17 *541:A2 *558:C1 0
18 *541:A2 *260:8 0
19 *541:A2 *354:52 0
20 *551:A1 *569:B1 0
21 *569:B2 *551:A2 0
22 *569:B2 *569:B1 8.43215e-07
23 *622:C1 *622:A 8.16741e-05
24 *622:C1 *622:C2 3.09411e-06
25 *117:8 *617:B 0
26 *117:8 *350:40 3.65322e-06
27 *117:10 *482:B 0.000353522
28 *117:10 *483:A 3.01743e-06
29 *117:10 *483:B 3.79486e-05
30 *117:10 *565:A 5.48052e-05
31 *117:10 *567:A1 1.38599e-05
32 *117:10 *617:B 9.52084e-05
33 *117:10 *350:53 4.76381e-05
34 *117:10 *351:90 0
35 *117:10 *354:52 0
36 *117:18 *551:A2 0
37 *117:18 *552:A 3.90891e-05
38 *117:18 *558:A 8.94571e-06
39 *117:18 *558:B1 2.11458e-06
40 *117:18 *354:52 0
41 *117:47 *385:A 0
42 *117:47 *613:B 5.01336e-06
43 *117:47 *617:B 0
44 *117:47 *618:A2 6.48216e-07
45 *117:47 *621:B1 0
46 *117:47 *621:C2 0
47 *117:47 *252:12 2.14524e-05
48 *117:47 *350:40 9.8046e-06
49 *428:A2 *117:10 1.06727e-05
50 *541:A1 *541:A2 2.39679e-06
51 *548:C1 *541:A2 6.39357e-05
52 *554:A1 *117:10 5.6451e-05
53 *558:B2 *551:A1 1.13571e-05
54 *558:B2 *117:18 4.08249e-06
55 *568:B2 *117:10 1.91181e-06
56 *619:A1 *117:47 0
57 *619:A2 *117:47 0
58 *621:C1 *117:47 1.40196e-06
59 *1:70 *117:10 1.91865e-05
60 *8:48 *117:47 6.05817e-05
61 *70:14 *117:10 6.08869e-06
62 *70:31 *117:10 4.01087e-05
63 *70:42 *117:10 0.000107564
64 *71:8 *117:10 5.67661e-05
65 *71:53 *541:A2 0.000233329
66 *71:53 *117:10 0.00168929
67 *91:8 *117:18 0
68 *114:27 *476:A2 4.66309e-05
*RES
1 *475:ZN *117:4 5 
2 *117:4 *117:8 5.75 
3 *117:8 *117:10 125.107 
4 *117:10 *117:18 17.9286 
5 *117:18 *569:B2 9.75 
6 *117:18 *551:A1 10 
7 *117:10 *541:A2 45.5357 
8 *117:4 *117:47 49.25 
9 *117:47 *622:C1 17.7857 
10 *117:47 *117:62 12.1964 
11 *117:62 *117:66 46.9464 
12 *117:66 *476:A2 36.0929 
*END

*D_NET *118 0.000118074
*CONN
*I *507:B1 I *D AOI221_X1
*I *476:ZN O *D NOR2_X1
*CAP
1 *507:B1 2.98661e-05
2 *476:ZN 2.98661e-05
3 *507:B1 *507:A 3.96215e-05
4 *476:A1 *507:B1 7.29164e-07
5 *507:B2 *507:B1 2.75346e-06
6 *114:14 *507:B1 1.52374e-05
*RES
1 *476:ZN *507:B1 14.6786 
*END

*D_NET *119 0.000427143
*CONN
*I *480:A1 I *D AND3_X1
*I *481:A1 I *D NAND3_X1
*I *477:ZN O *D XNOR2_X1
*CAP
1 *480:A1 8.4175e-06
2 *481:A1 5.07269e-05
3 *477:ZN 4.90214e-05
4 *119:10 0.000108166
5 *480:A1 *478:B 1.65484e-05
6 *480:A1 *480:A3 3.8984e-05
7 *481:A1 *481:A2 1.42082e-05
8 *481:A1 *481:A3 3.25477e-05
9 *119:10 *477:B 1.43276e-05
10 *119:10 *478:A 5.46453e-05
11 *119:10 *478:B 1.55619e-05
12 *119:10 *480:A3 1.72426e-05
13 *119:10 *141:8 0
14 *119:10 *350:123 2.52965e-06
15 *119:10 *356:14 4.21607e-06
*RES
1 *477:ZN *119:10 16.9286 
2 *119:10 *481:A1 15.75 
3 *119:10 *480:A1 12.2857 
*END

*D_NET *120 0.000221686
*CONN
*I *480:A2 I *D AND3_X1
*I *481:A2 I *D NAND3_X1
*I *478:ZN O *D XNOR2_X1
*CAP
1 *480:A2 4.20845e-05
2 *481:A2 3.56907e-05
3 *478:ZN 7.77752e-05
4 *480:A2 *480:A3 7.72792e-06
5 *481:A2 *481:A3 4.04629e-05
6 *481:A2 *127:27 3.73705e-06
7 *481:A1 *481:A2 1.42082e-05
*RES
1 *478:ZN *481:A2 14.9286 
2 *478:ZN *480:A2 14.2143 
*END

*D_NET *121 0.000538483
*CONN
*I *481:A3 I *D NAND3_X1
*I *480:A3 I *D AND3_X1
*I *479:ZN O *D XNOR2_X1
*CAP
1 *481:A3 6.37652e-05
2 *480:A3 2.34548e-05
3 *479:ZN 3.4458e-05
4 *121:6 0.000121678
5 *480:A3 *477:B 8.14262e-05
6 *480:A3 *478:B 4.45767e-06
7 *481:A3 *478:B 6.50581e-06
8 *481:A3 *127:25 3.23723e-07
9 *481:A3 *127:27 3.30309e-05
10 *481:A3 *141:8 2.89018e-05
11 *121:6 *127:25 3.51536e-06
12 *480:A1 *480:A3 3.8984e-05
13 *480:A2 *480:A3 7.72792e-06
14 *481:A1 *481:A3 3.25477e-05
15 *481:A2 *481:A3 4.04629e-05
16 *119:10 *480:A3 1.72426e-05
*RES
1 *479:ZN *121:6 8.25 
2 *121:6 *480:A3 20.0714 
3 *121:6 *481:A3 24.5357 
*END

*D_NET *122 0.00258949
*CONN
*I *544:A3 I *D NAND3_X1
*I *566:B2 I *D AOI222_X1
*I *486:A2 I *D OR3_X1
*I *516:B2 I *D AOI22_X1
*I *504:A3 I *D NAND3_X1
*I *480:ZN O *D AND3_X1
*CAP
1 *544:A3 4.58352e-05
2 *566:B2 0.000138533
3 *486:A2 4.01918e-05
4 *516:B2 0.00014601
5 *504:A3 1.6869e-05
6 *480:ZN 4.85773e-05
7 *122:49 0.000332091
8 *122:20 0.000410475
9 *122:12 0.000376498
10 *122:8 0.00028501
11 *486:A2 *486:A3 2.39679e-06
12 *486:A2 *495:A 1.91498e-06
13 *504:A3 *516:A2 9.0252e-06
14 *516:B2 *514:B2 8.06346e-05
15 *516:B2 *516:A2 0.000121922
16 *516:B2 *516:B1 2.59893e-05
17 *544:A3 *543:B 0
18 *544:A3 *136:44 7.66675e-07
19 *544:A3 *142:36 3.47242e-06
20 *566:B2 *545:A2 0
21 *566:B2 *546:A3 0
22 *566:B2 *566:A2 9.65581e-05
23 *566:B2 *566:C1 2.59193e-05
24 *566:B2 *199:8 2.39679e-06
25 *122:8 *477:B 0.000160182
26 *122:8 *479:B 0
27 *122:12 *479:B 2.39679e-06
28 *122:12 *486:A3 0
29 *122:12 *502:A 0
30 *122:20 *495:A 0
31 *122:20 *502:A 0
32 *122:20 *503:B2 0
33 *122:20 *137:8 0
34 *122:49 *477:B 6.78878e-05
35 *122:49 *479:B 0
36 *122:49 *514:B1 2.9382e-05
37 *122:49 *136:44 5.39412e-06
38 *122:49 *141:23 0
39 *122:49 *141:29 4.93825e-05
40 *486:A1 *486:A2 2.39679e-06
41 *486:A1 *122:12 9.57492e-07
42 *502:B1 *122:20 0
43 *504:A2 *504:A3 1.72405e-05
44 *542:A2 *544:A3 3.48838e-06
45 *544:A1 *544:A3 4.20755e-07
46 *544:A2 *544:A3 1.18077e-05
47 *1:90 *566:B2 2.74618e-05
*RES
1 *480:ZN *122:8 18.3929 
2 *122:8 *122:12 13.25 
3 *122:12 *122:20 29.2857 
4 *122:20 *504:A3 12.25 
5 *122:20 *516:B2 32 
6 *122:12 *486:A2 9.89286 
7 *122:8 *122:49 18.5714 
8 *122:49 *566:B2 28.75 
9 *122:49 *544:A3 16.4643 
*END

*D_NET *123 0.00423854
*CONN
*I *593:C1 I *D OAI211_X1
*I *526:C1 I *D OAI211_X1
*I *536:C1 I *D OAI211_X1
*I *557:C1 I *D OAI211_X1
*I *481:ZN O *D NAND3_X1
*CAP
1 *593:C1 0
2 *526:C1 0.000184884
3 *536:C1 0
4 *557:C1 0.000102697
5 *481:ZN 0.000301814
6 *123:72 0.000301814
7 *123:29 0.000359573
8 *123:10 0.000277386
9 *123:8 0.000297618
10 *123:6 0.000297618
11 *526:C1 *524:C1 1.82068e-05
12 *526:C1 *526:A 9.6515e-06
13 *526:C1 *527:B1 0.000161524
14 *526:C1 *527:C2 0.000131139
15 *526:C1 *536:A 2.66176e-05
16 *526:C1 *536:B 1.36638e-05
17 *526:C1 *536:C2 2.99438e-05
18 *526:C1 *137:38 1.39675e-05
19 *526:C1 *162:10 4.16344e-06
20 *526:C1 *171:10 1.26613e-05
21 *557:C1 *535:B2 2.33934e-05
22 *557:C1 *557:A 2.75346e-06
23 *557:C1 *194:16 3.65322e-06
24 *557:C1 *357:66 2.23896e-05
25 *123:8 *136:22 0
26 *123:8 *141:8 0.000147187
27 *123:8 *141:23 0.000210041
28 *123:8 *141:29 0
29 *123:8 *142:18 0.000110499
30 *123:8 *142:36 1.74146e-05
31 *123:8 *142:49 2.13672e-05
32 *123:29 *535:B2 2.10484e-05
33 *123:29 *536:A 2.75346e-06
34 *123:29 *536:B 0
35 *123:29 *536:C2 2.75346e-06
36 *123:29 *537:A 2.86475e-06
37 *123:29 *556:C2 8.5943e-06
38 *123:29 *142:72 2.50158e-05
39 *123:29 *354:8 2.13573e-06
40 *123:29 *354:12 2.92206e-05
41 *123:29 *354:42 5.25718e-06
42 *123:72 *496:B 9.66611e-07
43 *123:72 *591:A 0
44 *123:72 *591:B 0
45 *123:72 *591:C2 3.09411e-06
46 *123:72 *593:A 1.34558e-05
47 *123:72 *593:C2 5.52959e-06
48 *486:A1 *123:8 0.000144024
49 *554:B2 *557:C1 0.000102065
50 *1:92 *123:72 2.99364e-05
51 *3:50 *557:C1 1.19839e-05
52 *70:80 *123:8 0.000658777
53 *116:42 *123:72 3.72741e-05
54 *116:44 *123:72 2.81526e-05
*RES
1 *481:ZN *123:6 10 
2 *123:6 *123:8 57.25 
3 *123:8 *123:10 5 
4 *123:10 *557:C1 19.25 
5 *123:10 *123:29 29.2857 
6 *123:29 *536:C1 5 
7 *123:29 *526:C1 44.7857 
8 *481:ZN *123:72 48 
9 *123:72 *593:C1 5 
*END

*D_NET *124 0.000385824
*CONN
*I *485:A1 I *D NOR3_X1
*I *482:Z O *D XOR2_X1
*CAP
1 *485:A1 8.88298e-05
2 *482:Z 8.88298e-05
3 *485:A1 *479:A 2.52965e-06
4 *485:A1 *485:A3 3.66854e-05
5 *485:A1 *491:A 0
6 *485:A1 *127:10 0
7 *485:A1 *127:25 0
8 *485:A1 *350:123 5.55962e-06
9 *485:A1 *351:90 8.19658e-05
10 *485:A1 *351:99 8.14241e-05
*RES
1 *482:Z *485:A1 32.6429 
*END

*D_NET *125 0.000151061
*CONN
*I *485:A2 I *D NOR3_X1
*I *483:Z O *D XOR2_X1
*CAP
1 *485:A2 7.41537e-05
2 *483:Z 7.41537e-05
3 *485:A2 *485:A3 2.75346e-06
4 *485:A2 *349:85 0
*RES
1 *483:Z *485:A2 17.2143 
*END

*D_NET *126 0.000163414
*CONN
*I *485:A3 I *D NOR3_X1
*I *484:Z O *D XOR2_X1
*CAP
1 *485:A3 5.94369e-05
2 *484:Z 5.94369e-05
3 *485:A3 *127:10 0
4 *485:A3 *349:85 0
5 *485:A3 *351:90 5.10087e-06
6 *485:A1 *485:A3 3.66854e-05
7 *485:A2 *485:A3 2.75346e-06
*RES
1 *484:Z *485:A3 27.6071 
*END

*D_NET *127 0.00296685
*CONN
*I *592:A2 I *D AOI22_X1
*I *516:A2 I *D AOI22_X1
*I *505:A2 I *D AOI22_X1
*I *994:A I *D BUF_X2
*I *485:ZN O *D NOR3_X1
*CAP
1 *592:A2 0
2 *516:A2 0.000164358
3 *505:A2 0
4 *994:A 0
5 *485:ZN 8.92851e-05
6 *127:33 0.000221822
7 *127:27 0.000301348
8 *127:25 0.000417655
9 *127:10 0.000263056
10 *516:A2 *514:B2 8.00908e-05
11 *516:A2 *516:B1 4.26902e-05
12 *516:A2 *517:A3 5.52692e-06
13 *516:A2 *355:16 2.14667e-06
14 *516:A2 *356:30 0
15 *516:A2 *356:43 0
16 *127:10 *349:85 4.79202e-06
17 *127:25 *479:A 0.00017198
18 *127:25 *350:123 0
19 *127:25 *351:99 0
20 *127:25 *356:8 1.46861e-05
21 *127:25 *356:14 4.84979e-05
22 *127:25 *357:10 3.03843e-05
23 *127:27 *503:B1 0
24 *127:27 *137:14 0
25 *127:27 *356:14 0.000124506
26 *127:27 *356:30 0
27 *127:33 *503:B2 0.000109684
28 *127:33 *505:B1 4.44127e-06
29 *127:33 *356:22 5.90057e-05
30 *481:A2 *127:27 3.73705e-06
31 *481:A3 *127:25 3.23723e-07
32 *481:A3 *127:27 3.30309e-05
33 *485:A1 *127:10 0
34 *485:A1 *127:25 0
35 *485:A3 *127:10 0
36 *504:A2 *516:A2 5.56848e-05
37 *504:A2 *127:33 7.77137e-05
38 *504:A3 *516:A2 9.0252e-06
39 *505:A1 *516:A2 0.000366835
40 *505:B2 *127:33 6.73509e-06
41 *516:A1 *516:A2 4.12911e-06
42 *516:B2 *516:A2 0.000121922
43 *592:A1 *127:27 7.72792e-06
44 *592:A1 *127:33 0.000118285
45 *116:57 *516:A2 2.23415e-06
46 *121:6 *127:25 3.51536e-06
*RES
1 *485:ZN *127:10 18.9286 
2 *127:10 *994:A 10 
3 *127:10 *127:25 29.6429 
4 *127:25 *127:27 29.75 
5 *127:27 *127:33 21.7857 
6 *127:33 *505:A2 5 
7 *127:33 *516:A2 46.25 
8 *127:27 *592:A2 5 
*END

*D_NET *128 0.00014188
*CONN
*I *501:A2 I *D NOR4_X1
*I *486:ZN O *D OR3_X1
*CAP
1 *501:A2 3.61034e-05
2 *486:ZN 3.61034e-05
3 *501:A2 *495:A 4.32144e-07
4 *501:A2 *501:A3 2.39679e-06
5 *1:92 *501:A2 0
6 *116:44 *501:A2 6.68441e-05
*RES
1 *486:ZN *501:A2 24.3929 
*END

*D_NET *129 0.000118072
*CONN
*I *490:A1 I *D NOR3_X1
*I *487:Z O *D XOR2_X1
*CAP
1 *490:A1 1.85786e-05
2 *487:Z 1.85786e-05
3 *490:A1 *487:B 2.54802e-05
4 *490:A1 *490:A2 5.54348e-05
*RES
1 *487:Z *490:A1 23.6429 
*END

*D_NET *130 0.000242332
*CONN
*I *490:A2 I *D NOR3_X1
*I *488:Z O *D XOR2_X1
*CAP
1 *490:A2 9.16158e-05
2 *488:Z 9.16158e-05
3 *490:A2 *487:B 3.01743e-06
4 *490:A2 *488:B 0
5 *490:A2 *490:A3 6.48216e-07
6 *490:A1 *490:A2 5.54348e-05
*RES
1 *488:Z *490:A2 29.1429 
*END

*D_NET *131 0.000185324
*CONN
*I *490:A3 I *D NOR3_X1
*I *489:Z O *D XOR2_X1
*CAP
1 *490:A3 8.30817e-05
2 *489:Z 8.30817e-05
3 *490:A3 *487:B 1.21774e-06
4 *490:A3 *489:B 1.72943e-05
5 *490:A2 *490:A3 6.48216e-07
6 *71:12 *490:A3 0
*RES
1 *489:Z *490:A3 18.3929 
*END

*D_NET *132 0.00325319
*CONN
*I *547:C2 I *D AOI221_X1
*I *554:B1 I *D AOI22_X1
*I *566:C1 I *D AOI222_X1
*I *501:A3 I *D NOR4_X1
*I *993:A I *D BUF_X2
*I *490:ZN O *D NOR3_X1
*CAP
1 *547:C2 0.000101657
2 *554:B1 6.09993e-06
3 *566:C1 3.74661e-05
4 *501:A3 0.000172397
5 *993:A 4.82854e-06
6 *490:ZN 0.000124821
7 *132:45 0.000270299
8 *132:34 0.000280227
9 *132:19 0.00052489
10 *132:8 0.000401924
11 *501:A3 *486:A3 0
12 *501:A3 *501:A4 7.19036e-06
13 *501:A3 *142:8 2.2822e-05
14 *501:A3 *142:12 3.75728e-05
15 *547:C2 *547:A 7.72792e-06
16 *547:C2 *556:A 1.45878e-05
17 *547:C2 *556:C1 7.19036e-06
18 *547:C2 *556:C2 6.2092e-05
19 *547:C2 *557:C2 0
20 *547:C2 *185:20 2.23415e-06
21 *547:C2 *190:14 0
22 *547:C2 *354:52 1.96434e-05
23 *547:C2 *357:49 3.00021e-06
24 *566:C1 *199:8 2.39679e-06
25 *993:A *349:85 7.72537e-06
26 *993:A *350:123 3.09143e-06
27 *132:8 *487:B 0.000250896
28 *132:19 *357:10 2.37898e-05
29 *132:19 *357:21 5.12024e-06
30 *132:34 *357:21 8.07512e-06
31 *132:45 *357:21 1.9871e-06
32 *132:45 *357:32 3.69842e-06
33 *132:45 *357:49 2.40321e-05
34 *501:A2 *501:A3 2.39679e-06
35 *554:A1 *554:B1 2.52965e-06
36 *554:B2 *554:B1 7.19036e-06
37 *566:B2 *566:C1 2.59193e-05
38 *566:C2 *132:34 2.89018e-05
39 *566:C2 *132:45 0.000127576
40 *1:90 *566:C1 6.53753e-05
41 *2:57 *547:C2 7.61408e-05
42 *2:57 *132:45 0.000404959
43 *70:67 *501:A3 7.27198e-05
*RES
1 *490:ZN *132:8 27.8929 
2 *132:8 *993:A 10.75 
3 *132:8 *132:19 30.1072 
4 *132:19 *501:A3 30.9286 
5 *132:19 *132:34 8.39286 
6 *132:34 *566:C1 16.25 
7 *132:34 *132:45 28.0714 
8 *132:45 *554:B1 10.75 
9 *132:45 *547:C2 24.0714 
*END

*D_NET *133 0.000249859
*CONN
*I *494:A1 I *D NAND3_X1
*I *491:ZN O *D XNOR2_X1
*CAP
1 *494:A1 6.3791e-05
2 *491:ZN 6.3791e-05
3 *494:A1 *492:B 0
4 *494:A1 *493:B 0
5 *494:A1 *494:A2 9.47373e-05
6 *494:A1 *494:A3 2.31008e-05
7 *70:42 *494:A1 4.43868e-06
*RES
1 *491:ZN *494:A1 29 
*END

*D_NET *134 0.000461142
*CONN
*I *494:A2 I *D NAND3_X1
*I *492:ZN O *D XNOR2_X1
*CAP
1 *494:A2 8.38232e-05
2 *492:ZN 8.38232e-05
3 *494:A2 *492:A 4.47286e-06
4 *494:A2 *492:B 0
5 *494:A2 *493:A 1.10223e-05
6 *494:A1 *494:A2 9.47373e-05
7 *70:42 *494:A2 0.000183263
*RES
1 *492:ZN *494:A2 33.75 
*END

*D_NET *135 0.000419688
*CONN
*I *494:A3 I *D NAND3_X1
*I *493:ZN O *D XNOR2_X1
*CAP
1 *494:A3 0.000112048
2 *493:ZN 0.000112048
3 *494:A3 *483:B 8.22158e-05
4 *494:A3 *491:A 8.0602e-06
5 *494:A3 *493:A 0
6 *494:A1 *494:A3 2.31008e-05
7 *70:42 *494:A3 8.22158e-05
*RES
1 *493:ZN *494:A3 34.6786 
*END

*D_NET *136 0.00237247
*CONN
*I *564:A I *D OAI21_X1
*I *542:A3 I *D NAND3_X1
*I *514:A I *D OAI21_X1
*I *500:A1 I *D NAND2_X1
*I *495:A I *D INV_X1
*I *494:ZN O *D NAND3_X1
*CAP
1 *564:A 2.94101e-05
2 *542:A3 8.71307e-06
3 *514:A 0.000196873
4 *500:A1 0
5 *495:A 0.000101797
6 *494:ZN 0.00022943
7 *136:44 0.00024233
8 *136:22 0.000122615
9 *136:18 0.000194889
10 *136:12 0.000396166
11 *495:A *501:A4 4.79358e-06
12 *495:A *141:23 3.90865e-05
13 *495:A *141:29 2.75346e-06
14 *495:A *142:8 6.63762e-06
15 *495:A *142:12 4.49334e-05
16 *495:A *143:10 0
17 *514:A *514:B1 0.000111332
18 *514:A *543:B 0
19 *514:A *355:16 6.07963e-05
20 *564:A *564:B1 2.39679e-06
21 *564:A *564:B2 4.32298e-05
22 *136:12 *482:B 0
23 *136:12 *483:B 2.14861e-06
24 *136:18 *564:B1 4.43663e-05
25 *136:22 *141:29 6.68461e-05
26 *136:22 *142:36 1.90192e-05
27 *136:44 *514:B1 8.08825e-05
28 *136:44 *141:29 3.81944e-05
29 *136:44 *142:36 5.48052e-05
30 *486:A2 *495:A 1.91498e-06
31 *501:A2 *495:A 4.32144e-07
32 *542:A1 *514:A 1.40196e-06
33 *544:A3 *136:44 7.66675e-07
34 *566:C2 *564:A 2.16072e-07
35 *70:67 *136:18 0.000217903
36 *122:20 *495:A 0
37 *122:49 *136:44 5.39412e-06
38 *123:8 *136:22 0
*RES
1 *494:ZN *136:12 33.8572 
2 *136:12 *136:18 30.75 
3 *136:18 *136:22 8.64286 
4 *136:22 *495:A 17.3571 
5 *136:22 *500:A1 5 
6 *136:18 *136:44 12.7143 
7 *136:44 *514:A 30.75 
8 *136:44 *542:A3 5.92857 
9 *136:12 *564:A 13.7143 
*END

*D_NET *137 0.00286731
*CONN
*I *524:C2 I *D OAI211_X1
*I *534:C2 I *D OAI211_X1
*I *556:C2 I *D OAI211_X1
*I *503:B1 I *D OAI22_X1
*I *591:C2 I *D OAI211_X1
*I *495:ZN O *D INV_X1
*CAP
1 *524:C2 0.000118653
2 *534:C2 0
3 *556:C2 0.000239933
4 *503:B1 3.66785e-05
5 *591:C2 9.62124e-05
6 *495:ZN 8.0244e-05
7 *137:55 0.000123477
8 *137:38 0.000634284
9 *137:14 0.000362235
10 *137:8 0.000699114
11 *503:B1 *503:B2 7.19036e-06
12 *503:B1 *356:30 1.87637e-06
13 *524:C2 *524:A 2.56241e-05
14 *524:C2 *524:C1 2.43548e-06
15 *524:C2 *526:A 1.80284e-05
16 *524:C2 *527:C2 4.52397e-05
17 *524:C2 *534:A 5.7295e-06
18 *524:C2 *534:C1 1.21774e-06
19 *556:C2 *527:C2 6.71156e-06
20 *556:C2 *534:C1 1.87369e-06
21 *556:C2 *536:C2 1.43352e-05
22 *556:C2 *547:A 1.52083e-06
23 *556:C2 *556:A 1.31628e-05
24 *556:C2 *142:72 1.91681e-05
25 *556:C2 *185:20 9.74193e-06
26 *556:C2 *194:16 5.57182e-06
27 *556:C2 *354:42 8.37466e-06
28 *556:C2 *354:52 4.38852e-05
29 *591:C2 *505:B1 1.34851e-06
30 *591:C2 *591:B 5.31485e-05
31 *591:C2 *591:C1 1.68643e-06
32 *591:C2 *592:B2 3.68288e-06
33 *591:C2 *593:A 2.39679e-06
34 *591:C2 *593:B 0
35 *591:C2 *356:22 1.19107e-06
36 *137:14 *502:A 0
37 *137:55 *527:C2 9.62051e-07
38 *137:55 *534:C1 3.09411e-06
39 *502:B2 *503:B1 1.62716e-05
40 *502:B2 *137:14 3.09143e-06
41 *526:C1 *137:38 1.39675e-05
42 *535:A1 *556:C2 7.01728e-05
43 *547:C2 *556:C2 6.2092e-05
44 *122:20 *137:8 0
45 *123:29 *556:C2 8.5943e-06
46 *123:72 *591:C2 3.09411e-06
47 *127:27 *503:B1 0
48 *127:27 *137:14 0
*RES
1 *495:ZN *137:8 17.75 
2 *137:8 *137:14 29.6429 
3 *137:14 *591:C2 25.5 
4 *137:14 *503:B1 9.25 
5 *137:8 *137:38 48 
6 *137:38 *556:C2 46.6072 
7 *137:38 *137:55 0.75 
8 *137:55 *534:C2 5 
9 *137:55 *524:C2 20.75 
*END

*D_NET *138 0.000115852
*CONN
*I *499:A1 I *D NAND3_X1
*I *496:ZN O *D XNOR2_X1
*CAP
1 *499:A1 3.16253e-05
2 *496:ZN 3.16253e-05
3 *499:A1 *496:A 1.91498e-06
4 *499:A1 *496:B 2.64615e-05
5 *499:A1 *499:A2 2.12844e-05
6 *499:A1 *499:A3 2.16072e-07
7 *116:42 *499:A1 2.72417e-06
*RES
1 *496:ZN *499:A1 24.8929 
*END

*D_NET *139 0.00030769
*CONN
*I *499:A2 I *D NAND3_X1
*I *497:ZN O *D XNOR2_X1
*CAP
1 *499:A2 5.82929e-05
2 *497:ZN 5.82929e-05
3 *499:A2 *496:B 9.05228e-06
4 *499:A2 *499:A3 2.39679e-06
5 *499:A1 *499:A2 2.12844e-05
6 *71:12 *499:A2 1.28122e-06
7 *116:23 *499:A2 5.4464e-05
8 *116:42 *499:A2 0.000102626
*RES
1 *497:ZN *499:A2 29.6429 
*END

*D_NET *140 0.000226905
*CONN
*I *499:A3 I *D NAND3_X1
*I *498:ZN O *D XNOR2_X1
*CAP
1 *499:A3 6.84464e-05
2 *498:ZN 6.84464e-05
3 *499:A3 *496:A 0
4 *499:A3 *496:B 4.64381e-06
5 *499:A3 *498:B 8.27554e-05
6 *499:A1 *499:A3 2.16072e-07
7 *499:A2 *499:A3 2.39679e-06
8 *71:12 *499:A3 0
*RES
1 *498:ZN *499:A3 28.5714 
*END

*D_NET *141 0.00314994
*CONN
*I *500:A2 I *D NAND2_X1
*I *514:B1 I *D OAI21_X1
*I *564:B1 I *D OAI21_X1
*I *502:A I *D AOI21_X1
*I *499:ZN O *D NAND3_X1
*CAP
1 *500:A2 0
2 *514:B1 0.000224871
3 *564:B1 0.000176713
4 *502:A 0.000229372
5 *499:ZN 0.000220942
6 *141:29 0.00044317
7 *141:23 0.000124426
8 *141:8 0.000533154
9 *514:B1 *514:B2 2.75346e-06
10 *514:B1 *515:B2 6.56185e-06
11 *141:8 *478:A 0
12 *141:8 *478:B 2.84975e-05
13 *141:8 *496:B 9.70469e-05
14 *141:8 *498:B 2.45464e-05
15 *141:8 *142:18 2.2482e-05
16 *141:8 *350:115 0
17 *141:23 *478:B 2.64562e-05
18 *141:23 *486:A3 7.15835e-06
19 *141:29 *486:A3 2.14856e-06
20 *141:29 *142:8 6.85774e-07
21 *481:A3 *141:8 2.89018e-05
22 *495:A *141:23 3.90865e-05
23 *495:A *141:29 2.75346e-06
24 *502:B1 *502:A 1.21774e-06
25 *514:A *514:B1 0.000111332
26 *564:A *564:B1 2.39679e-06
27 *566:C2 *564:B1 1.11799e-05
28 *1:90 *514:B1 0.000104905
29 *1:90 *564:B1 0
30 *116:42 *141:8 3.35485e-06
31 *116:44 *141:8 7.54357e-06
32 *119:10 *141:8 0
33 *122:12 *502:A 0
34 *122:20 *502:A 0
35 *122:49 *514:B1 2.9382e-05
36 *122:49 *141:23 0
37 *122:49 *141:29 4.93825e-05
38 *123:8 *141:8 0.000147187
39 *123:8 *141:23 0.000210041
40 *123:8 *141:29 0
41 *136:18 *564:B1 4.43663e-05
42 *136:22 *141:29 6.68461e-05
43 *136:44 *514:B1 8.08825e-05
44 *136:44 *141:29 3.81944e-05
45 *137:14 *502:A 0
*RES
1 *499:ZN *141:8 42.8214 
2 *141:8 *502:A 32.25 
3 *141:8 *141:23 19.8571 
4 *141:23 *141:29 12.7857 
5 *141:29 *564:B1 29.75 
6 *141:29 *514:B1 41.5 
7 *141:23 *500:A2 5 
*END

*D_NET *142 0.00415009
*CONN
*I *524:A I *D OAI211_X1
*I *534:A I *D OAI211_X1
*I *556:A I *D OAI211_X1
*I *543:A I *D OAI211_X1
*I *501:A4 I *D NOR4_X1
*I *591:A I *D OAI211_X1
*I *500:ZN O *D NAND2_X1
*CAP
1 *524:A 0.000120332
2 *534:A 1.39974e-05
3 *556:A 0.000116179
4 *543:A 1.04765e-05
5 *501:A4 4.30846e-06
6 *591:A 0.000176122
7 *500:ZN 2.13428e-05
8 *142:72 0.000342184
9 *142:49 0.000503111
10 *142:36 0.000314462
11 *142:18 0.000286022
12 *142:12 0.000143455
13 *142:8 0.000175498
14 *524:A *524:B 2.75346e-06
15 *524:A *524:C1 1.87418e-05
16 *524:A *526:A 1.68643e-06
17 *534:A *534:C1 2.75346e-06
18 *534:A *536:A 6.0887e-06
19 *543:A *543:B 4.08322e-06
20 *543:A *546:A1 3.37286e-06
21 *556:A *556:C1 2.75346e-06
22 *556:A *185:20 5.29009e-05
23 *556:A *194:16 3.04732e-06
24 *591:A *496:B 0
25 *591:A *591:C1 2.39679e-06
26 *591:A *356:14 9.04657e-05
27 *142:8 *486:A3 0
28 *142:72 *536:A 8.99734e-06
29 *142:72 *537:A 8.10164e-05
30 *486:A1 *142:18 9.30875e-05
31 *495:A *501:A4 4.79358e-06
32 *495:A *142:8 6.63762e-06
33 *495:A *142:12 4.49334e-05
34 *501:A3 *501:A4 7.19036e-06
35 *501:A3 *142:8 2.2822e-05
36 *501:A3 *142:12 3.75728e-05
37 *524:C2 *524:A 2.56241e-05
38 *524:C2 *534:A 5.7295e-06
39 *542:A1 *142:36 4.26902e-05
40 *542:A2 *142:36 4.80119e-06
41 *543:C1 *543:A 7.19036e-06
42 *544:A3 *142:36 3.47242e-06
43 *547:C1 *556:A 1.48912e-05
44 *547:C1 *142:72 2.97424e-05
45 *547:C2 *556:A 1.45878e-05
46 *556:C2 *556:A 1.31628e-05
47 *556:C2 *142:72 1.91681e-05
48 *3:50 *142:36 1.66988e-05
49 *3:50 *142:49 0.000361481
50 *3:52 *142:36 4.18985e-05
51 *4:59 *524:A 0
52 *4:59 *142:72 8.80829e-06
53 *11:30 *142:49 5.4463e-05
54 *70:80 *142:49 0
55 *116:44 *142:18 0.000488807
56 *123:8 *142:18 0.000110499
57 *123:8 *142:36 1.74146e-05
58 *123:8 *142:49 2.13672e-05
59 *123:29 *142:72 2.50158e-05
60 *123:72 *591:A 0
61 *136:22 *142:36 1.90192e-05
62 *136:44 *142:36 5.48052e-05
63 *141:8 *142:18 2.2482e-05
64 *141:29 *142:8 6.85774e-07
*RES
1 *500:ZN *142:8 8.17857 
2 *142:8 *142:12 5.17857 
3 *142:12 *142:18 36.0357 
4 *142:18 *591:A 25.75 
5 *142:12 *501:A4 5.75 
6 *142:8 *142:36 22.2143 
7 *142:36 *543:A 11.25 
8 *142:36 *142:49 32.3929 
9 *142:49 *556:A 28.7857 
10 *142:49 *142:72 26.75 
11 *142:72 *534:A 7.25 
12 *142:72 *524:A 18.75 
*END

*D_NET *143 0.00151918
*CONN
*I *991:A I *D BUF_X1
*I *568:C2 I *D AOI221_X1
*I *992:A I *D BUF_X1
*I *501:ZN O *D NOR4_X1
*CAP
1 *991:A 0
2 *568:C2 0
3 *992:A 0
4 *501:ZN 9.84865e-05
5 *143:25 0.000443524
6 *143:21 0.000542466
7 *143:10 0.000197429
8 *143:25 *543:B 0
9 *143:25 *546:A1 2.41371e-05
10 *143:25 *546:A3 0
11 *143:25 *567:A2 0
12 *143:25 *568:A 1.40196e-05
13 *495:A *143:10 0
14 *545:A1 *143:25 0
15 *1:64 *143:25 1.58933e-05
16 *1:90 *143:10 0
17 *1:92 *143:10 0.000133653
18 *116:55 *143:10 0
19 *116:55 *143:21 0
20 *116:57 *143:25 4.95679e-05
*RES
1 *501:ZN *143:10 22.1429 
2 *143:10 *992:A 10 
3 *143:10 *143:21 15.4286 
4 *143:21 *143:25 45.6786 
5 *143:25 *568:C2 5 
6 *143:21 *991:A 5 
*END

*D_NET *144 0.000359954
*CONN
*I *503:B2 I *D OAI22_X1
*I *502:ZN O *D AOI21_X1
*CAP
1 *503:B2 6.81373e-05
2 *502:ZN 6.81373e-05
3 *503:B2 *505:B1 9.36808e-05
4 *503:B2 *356:30 7.72537e-06
5 *502:B1 *503:B2 5.39862e-06
6 *503:B1 *503:B2 7.19036e-06
7 *122:20 *503:B2 0
8 *127:33 *503:B2 0.000109684
*RES
1 *502:ZN *503:B2 30.3571 
*END

*D_NET *145 0.000329324
*CONN
*I *506:A1 I *D NAND3_X1
*I *503:ZN O *D OAI22_X1
*CAP
1 *506:A1 5.17998e-05
2 *503:ZN 5.17998e-05
3 *506:A1 *507:A 2.08098e-06
4 *506:A1 *356:30 9.99204e-05
5 *7:74 *506:A1 0.000123723
*RES
1 *503:ZN *506:A1 29.25 
*END

*D_NET *146 0.000231737
*CONN
*I *506:A2 I *D NAND3_X1
*I *504:ZN O *D NAND3_X1
*CAP
1 *506:A2 9.63687e-05
2 *504:ZN 9.63687e-05
3 *506:A2 *506:A3 3.69612e-05
4 *504:A1 *506:A2 2.03863e-06
*RES
1 *504:ZN *506:A2 19.75 
*END

*D_NET *147 0.000185438
*CONN
*I *506:A3 I *D NAND3_X1
*I *505:ZN O *D AOI22_X1
*CAP
1 *506:A3 5.69889e-05
2 *505:ZN 5.69889e-05
3 *506:A3 *505:B1 4.36533e-06
4 *502:B1 *506:A3 0
5 *505:A1 *506:A3 1.39539e-05
6 *505:B2 *506:A3 7.40306e-06
7 *506:A2 *506:A3 3.69612e-05
8 *15:39 *506:A3 8.77639e-06
*RES
1 *505:ZN *506:A3 17.6071 
*END

*D_NET *148 0.000623614
*CONN
*I *507:A I *D AOI221_X1
*I *506:ZN O *D NAND3_X1
*CAP
1 *507:A 0.000179107
2 *506:ZN 0.000179107
3 *507:A *507:C2 0.000165762
4 *507:A *594:B1 8.727e-07
5 *507:A *355:27 5.04693e-06
6 *476:A1 *507:A 2.83077e-06
7 *506:A1 *507:A 2.08098e-06
8 *507:B1 *507:A 3.96215e-05
9 *7:74 *507:A 3.60121e-05
10 *15:39 *507:A 1.20555e-05
11 *114:14 *507:A 1.11792e-06
*RES
1 *506:ZN *507:A 44.4286 
*END

*D_NET *149 0.000881834
*CONN
*I *508:A I *D OAI21_X1
*I *507:ZN O *D AOI221_X1
*CAP
1 *508:A 0
2 *507:ZN 2.08397e-05
3 *149:14 0.000316924
4 *149:8 0.000337764
5 *149:14 *595:C2 0
6 *149:14 *263:10 8.32313e-06
7 *149:14 *263:12 8.65359e-05
8 *149:14 *264:8 1.21774e-06
9 *430:A2 *149:14 0
10 *472:B1 *149:14 3.01743e-06
11 *472:B2 *149:14 6.03486e-06
12 *473:A3 *149:14 1.045e-05
13 *507:B2 *149:14 6.70982e-05
14 *508:B2 *149:14 2.16072e-07
15 *15:39 *149:8 2.18524e-05
16 *70:16 *149:14 0
17 *114:14 *149:14 1.56073e-06
*RES
1 *507:ZN *149:8 12.25 
2 *149:8 *149:14 45.1786 
3 *149:14 *508:A 5 
*END

*D_NET *150 0.000746219
*CONN
*I *518:B1 I *D OAI21_X1
*I *509:ZN O *D XNOR2_X1
*CAP
1 *518:B1 0.000229234
2 *509:ZN 0.000229234
3 *432:A1 *518:B1 1.28122e-06
4 *433:B *518:B1 1.32795e-05
5 *518:B2 *518:B1 1.21774e-06
6 *6:36 *518:B1 2.77232e-05
7 *14:15 *518:B1 7.85323e-05
8 *14:21 *518:B1 0.000111085
9 *60:20 *518:B1 3.03869e-05
10 *75:8 *518:B1 2.42461e-05
*RES
1 *509:ZN *518:B1 40.7857 
*END

*D_NET *151 0.000337253
*CONN
*I *511:A3 I *D NAND3_X1
*I *510:ZN O *D OR3_X1
*CAP
1 *511:A3 7.78782e-05
2 *510:ZN 7.78782e-05
3 *466:B1 *511:A3 0
4 *466:B2 *511:A3 0
5 *511:A2 *511:A3 2.89018e-05
6 *71:35 *511:A3 0.000146149
7 *106:14 *511:A3 6.44574e-06
8 *107:10 *511:A3 0
*RES
1 *510:ZN *511:A3 30.9643 
*END

*D_NET *152 0.000354141
*CONN
*I *517:A1 I *D AND3_X1
*I *511:ZN O *D NAND3_X1
*CAP
1 *517:A1 0.000111697
2 *511:ZN 0.000111697
3 *517:A1 *434:A 3.35822e-05
4 *517:A1 *517:A2 2.75346e-06
5 *517:A1 *518:A 1.37329e-05
6 *517:A1 *262:8 0
7 *7:58 *517:A1 0
8 *14:21 *517:A1 4.56446e-05
9 *71:35 *517:A1 3.50334e-05
*RES
1 *511:ZN *517:A1 34.9286 
*END

*D_NET *153 0.000636065
*CONN
*I *516:B1 I *D AOI22_X1
*I *514:B2 I *D OAI21_X1
*I *512:ZN O *D AND2_X1
*CAP
1 *516:B1 1.58089e-05
2 *514:B2 6.70533e-05
3 *512:ZN 7.41681e-05
4 *153:10 0.00015703
5 *514:B2 *515:B2 6.06867e-06
6 *514:B2 *355:16 0
7 *516:B1 *517:A3 7.72537e-06
8 *153:10 *515:A2 7.19036e-06
9 *153:10 *515:B2 3.28137e-06
10 *153:10 *517:A2 7.759e-06
11 *153:10 *517:A3 8.95145e-06
12 *153:10 *355:16 3.78407e-05
13 *153:10 *355:27 3.83909e-06
14 *514:B1 *514:B2 2.75346e-06
15 *515:A1 *153:10 7.19036e-06
16 *516:A2 *514:B2 8.00908e-05
17 *516:A2 *516:B1 4.26902e-05
18 *516:B2 *514:B2 8.06346e-05
19 *516:B2 *516:B1 2.59893e-05
*RES
1 *512:ZN *153:10 19.1786 
2 *153:10 *514:B2 19.5714 
3 *153:10 *516:B1 13.0357 
*END

*D_NET *154 0.000311474
*CONN
*I *515:B1 I *D AOI222_X1
*I *513:ZN O *D OR2_X1
*CAP
1 *515:B1 2.82052e-05
2 *513:ZN 2.82052e-05
3 *515:B1 *356:30 2.94435e-05
4 *515:B1 *356:43 0.000106624
5 *525:A1 *515:B1 4.24402e-05
6 *7:66 *515:B1 2.27068e-05
7 *7:68 *515:B1 5.38494e-05
*RES
1 *513:ZN *515:B1 27.0357 
*END

*D_NET *155 0.000293311
*CONN
*I *515:B2 I *D AOI222_X1
*I *514:ZN O *D OAI21_X1
*CAP
1 *515:B2 9.12242e-05
2 *514:ZN 9.12242e-05
3 *515:B2 *515:A2 7.19036e-06
4 *515:B2 *355:16 8.65427e-05
5 *515:B2 *355:27 1.21774e-06
6 *505:A1 *515:B2 0
7 *514:B1 *515:B2 6.56185e-06
8 *514:B2 *515:B2 6.06867e-06
9 *153:10 *515:B2 3.28137e-06
*RES
1 *514:ZN *515:B2 21.5357 
*END

*D_NET *156 0.000249576
*CONN
*I *517:A2 I *D AND3_X1
*I *515:ZN O *D AOI222_X1
*CAP
1 *517:A2 7.50283e-05
2 *515:ZN 7.50283e-05
3 *517:A2 *517:A3 6.92091e-05
4 *517:A2 *355:27 0
5 *512:A1 *517:A2 3.23723e-07
6 *517:A1 *517:A2 2.75346e-06
7 *14:21 *517:A2 1.94739e-05
8 *153:10 *517:A2 7.759e-06
*RES
1 *515:ZN *517:A2 20.8571 
*END

*D_NET *157 0.000447201
*CONN
*I *517:A3 I *D AND3_X1
*I *516:ZN O *D AOI22_X1
*CAP
1 *517:A3 0.000147913
2 *516:ZN 0.000147913
3 *517:A3 *355:16 0
4 *513:A1 *517:A3 7.72792e-06
5 *513:A2 *517:A3 1.68643e-06
6 *515:A1 *517:A3 2.52965e-06
7 *516:A2 *517:A3 5.52692e-06
8 *516:B1 *517:A3 7.72537e-06
9 *517:A2 *517:A3 6.92091e-05
10 *6:70 *517:A3 3.56223e-05
11 *7:58 *517:A3 1.23949e-05
12 *116:57 *517:A3 0
13 *153:10 *517:A3 8.95145e-06
*RES
1 *516:ZN *517:A3 28.8572 
*END

*D_NET *158 0.000399604
*CONN
*I *518:A I *D OAI21_X1
*I *517:ZN O *D AND3_X1
*CAP
1 *518:A 0.000114231
2 *517:ZN 0.000114231
3 *518:A *434:A 1.59582e-06
4 *517:A1 *518:A 1.37329e-05
5 *7:58 *518:A 3.61953e-05
6 *71:35 *518:A 0.000119619
*RES
1 *517:ZN *518:A 35.1071 
*END

*D_NET *159 0.000525705
*CONN
*I *528:C2 I *D OAI221_X1
*I *519:ZN O *D XNOR2_X1
*CAP
1 *528:C2 0.000198256
2 *519:ZN 0.000198256
3 *528:C2 *528:A 7.19036e-06
4 *465:A *528:C2 2.52965e-06
5 *465:B2 *528:C2 6.38784e-06
6 *528:B2 *528:C2 4.32144e-07
7 *528:C1 *528:C2 2.11452e-05
8 *13:41 *528:C2 7.39407e-05
9 *107:10 *528:C2 1.75677e-05
*RES
1 *519:ZN *528:C2 34.25 
*END

*D_NET *160 0.000438222
*CONN
*I *521:A2 I *D NAND2_X1
*I *520:ZN O *D NAND3_X1
*CAP
1 *521:A2 8.91882e-05
2 *520:ZN 8.91882e-05
3 *521:A2 *528:B1 1.72426e-05
4 *521:A2 *261:22 0
5 *464:B1 *521:A2 4.12796e-06
6 *464:B2 *521:A2 7.98408e-05
7 *521:A1 *521:A2 2.52965e-06
8 *5:46 *521:A2 0
9 *106:8 *521:A2 0.00014561
10 *116:80 *521:A2 1.0495e-05
*RES
1 *520:ZN *521:A2 33.8929 
*END

*D_NET *161 0.000355747
*CONN
*I *528:B1 I *D OAI221_X1
*I *521:ZN O *D NAND2_X1
*CAP
1 *528:B1 5.93668e-05
2 *521:ZN 5.93668e-05
3 *528:B1 *528:A 1.72405e-05
4 *528:B1 *624:A1 9.36271e-05
5 *528:B1 *261:22 0
6 *528:B1 *262:8 4.37715e-05
7 *521:A2 *528:B1 1.72426e-05
8 *106:8 *528:B1 6.51314e-05
*RES
1 *521:ZN *528:B1 31.1071 
*END

*D_NET *162 0.000441044
*CONN
*I *526:C2 I *D OAI211_X1
*I *524:C1 I *D OAI211_X1
*I *522:ZN O *D NAND2_X1
*CAP
1 *526:C2 0
2 *524:C1 6.76546e-05
3 *522:ZN 4.36057e-05
4 *162:10 0.00011126
5 *524:C1 *526:A 8.03331e-05
6 *524:C1 *526:B 9.561e-06
7 *524:C1 *527:A 3.2039e-05
8 *524:C1 *527:B1 1.87392e-05
9 *524:C1 *535:C1 1.91667e-07
10 *162:10 *527:B1 1.98936e-05
11 *162:10 *527:C2 2.23415e-06
12 *524:A *524:C1 1.87418e-05
13 *524:C2 *524:C1 2.43548e-06
14 *526:C1 *524:C1 1.82068e-05
15 *526:C1 *162:10 4.16344e-06
16 *5:62 *162:10 1.19839e-05
*RES
1 *522:ZN *162:10 10.4286 
2 *162:10 *524:C1 24.8571 
3 *162:10 *526:C2 5 
*END

*D_NET *163 0.000149702
*CONN
*I *524:B I *D OAI211_X1
*I *523:ZN O *D OR2_X1
*CAP
1 *524:B 6.19237e-05
2 *523:ZN 6.19237e-05
3 *524:B *527:C2 0
4 *524:A *524:B 2.75346e-06
5 *527:C1 *524:B 2.31008e-05
6 *4:59 *524:B 0
*RES
1 *523:ZN *524:B 16.8929 
*END

*D_NET *164 0.000229492
*CONN
*I *526:A I *D OAI211_X1
*I *524:ZN O *D OAI211_X1
*CAP
1 *526:A 5.53515e-05
2 *524:ZN 5.53515e-05
3 *526:A *527:C2 9.08971e-06
4 *524:A *526:A 1.68643e-06
5 *524:C1 *526:A 8.03331e-05
6 *524:C2 *526:A 1.80284e-05
7 *526:C1 *526:A 9.6515e-06
*RES
1 *524:ZN *526:A 27.6429 
*END

*D_NET *165 0.000140143
*CONN
*I *526:B I *D OAI211_X1
*I *525:ZN O *D NAND2_X1
*CAP
1 *526:B 5.45126e-05
2 *525:ZN 5.45126e-05
3 *526:B *527:A 1.88334e-06
4 *526:B *527:B1 0
5 *526:B *535:C1 0
6 *524:C1 *526:B 9.561e-06
7 *525:A1 *526:B 1.72405e-05
8 *5:62 *526:B 2.43341e-06
*RES
1 *525:ZN *526:B 25.6786 
*END

*D_NET *166 0.000208389
*CONN
*I *527:A I *D AOI221_X1
*I *526:ZN O *D OAI211_X1
*CAP
1 *527:A 6.81518e-05
2 *526:ZN 6.81518e-05
3 *527:A *527:B1 1.54355e-05
4 *527:A *527:C2 1.82068e-05
5 *522:A2 *527:A 2.3767e-06
6 *524:C1 *527:A 3.2039e-05
7 *526:B *527:A 1.88334e-06
8 *527:C1 *527:A 2.14394e-06
*RES
1 *526:ZN *527:A 28.5357 
*END

*D_NET *167 0.000497653
*CONN
*I *528:A I *D OAI221_X1
*I *527:ZN O *D AOI221_X1
*CAP
1 *528:A 0.000150707
2 *527:ZN 0.000150707
3 *528:A *527:C2 7.72537e-06
4 *528:A *262:8 3.6328e-05
5 *527:C1 *528:A 7.72537e-06
6 *528:B1 *528:A 1.72405e-05
7 *528:B2 *528:A 3.09143e-06
8 *528:C2 *528:A 7.19036e-06
9 *106:8 *528:A 2.51997e-05
10 *106:14 *528:A 9.17381e-05
*RES
1 *527:ZN *528:A 38.3572 
*END

*D_NET *168 0.000937758
*CONN
*I *537:B1 I *D AOI21_X1
*I *529:Z O *D XOR2_X1
*CAP
1 *537:B1 0
2 *529:Z 4.0444e-05
3 *168:14 0.000315942
4 *168:8 0.000356386
5 *168:8 *415:A 0
6 *168:14 *537:A 2.39679e-06
7 *168:14 *538:A 0.000108126
8 *168:14 *538:B2 4.40836e-06
9 *537:B2 *168:14 2.43548e-06
10 *12:36 *168:14 8.37194e-05
11 *53:8 *168:8 2.07669e-05
12 *98:10 *168:14 0
13 *103:10 *168:14 0
14 *104:12 *168:14 3.13376e-06
*RES
1 *529:Z *168:8 14.75 
2 *168:8 *168:14 45.3572 
3 *168:14 *537:B1 5 
*END

*D_NET *169 0.000205382
*CONN
*I *538:B2 I *D OAI21_X1
*I *530:ZN O *D NOR3_X1
*CAP
1 *538:B2 6.11651e-05
2 *530:ZN 6.11651e-05
3 *538:B2 *261:8 2.80752e-05
4 *538:B2 *261:22 9.76549e-06
5 *530:A3 *538:B2 1.72084e-05
6 *537:B2 *538:B2 0
7 *97:23 *538:B2 2.35942e-05
8 *168:14 *538:B2 4.40836e-06
*RES
1 *530:ZN *538:B2 28.0714 
*END

*D_NET *170 0.000120586
*CONN
*I *538:B1 I *D OAI21_X1
*I *531:ZN O *D NAND2_X1
*CAP
1 *538:B1 4.54052e-05
2 *531:ZN 4.54052e-05
3 *538:B1 *261:8 2.75346e-06
4 *538:B1 *261:22 1.25189e-05
5 *104:12 *538:B1 7.72537e-06
6 *116:80 *538:B1 6.77793e-06
*RES
1 *531:ZN *538:B1 15.6429 
*END

*D_NET *171 0.00039321
*CONN
*I *534:C1 I *D OAI211_X1
*I *536:C2 I *D OAI211_X1
*I *532:ZN O *D NAND2_X1
*CAP
1 *534:C1 1.0288e-05
2 *536:C2 3.56479e-05
3 *532:ZN 8.88834e-05
4 *171:10 0.000134819
5 *534:C1 *536:A 2.11815e-06
6 *536:C2 *536:A 6.82202e-07
7 *171:10 *534:B 3.49138e-05
8 *171:10 *536:B 2.13759e-06
9 *171:10 *537:A 1.50871e-05
10 *524:C2 *534:C1 1.21774e-06
11 *526:C1 *536:C2 2.99438e-05
12 *526:C1 *171:10 1.26613e-05
13 *534:A *534:C1 2.75346e-06
14 *556:C2 *534:C1 1.87369e-06
15 *556:C2 *536:C2 1.43352e-05
16 *123:29 *536:C2 2.75346e-06
17 *137:55 *534:C1 3.09411e-06
*RES
1 *532:ZN *171:10 25.4286 
2 *171:10 *536:C2 9.67857 
3 *171:10 *534:C1 6.25 
*END

*D_NET *172 0.000191289
*CONN
*I *534:B I *D OAI211_X1
*I *533:ZN O *D OR2_X1
*CAP
1 *534:B 3.91388e-05
2 *533:ZN 3.91388e-05
3 *534:B *537:A 7.80971e-05
4 *171:10 *534:B 3.49138e-05
*RES
1 *533:ZN *534:B 25.6786 
*END

*D_NET *173 0.000202291
*CONN
*I *536:A I *D OAI211_X1
*I *534:ZN O *D OAI211_X1
*CAP
1 *536:A 5.05246e-05
2 *534:ZN 5.05246e-05
3 *536:A *536:B 1.32323e-05
4 *536:A *537:A 4.07526e-05
5 *526:C1 *536:A 2.66176e-05
6 *534:A *536:A 6.0887e-06
7 *534:C1 *536:A 2.11815e-06
8 *536:C2 *536:A 6.82202e-07
9 *123:29 *536:A 2.75346e-06
10 *142:72 *536:A 8.99734e-06
*RES
1 *534:ZN *536:A 17.8571 
*END

*D_NET *174 0.000155164
*CONN
*I *536:B I *D OAI211_X1
*I *535:ZN O *D AOI222_X1
*CAP
1 *536:B 5.56195e-05
2 *535:ZN 5.56195e-05
3 *536:B *537:A 1.4891e-05
4 *526:C1 *536:B 1.36638e-05
5 *536:A *536:B 1.32323e-05
6 *123:29 *536:B 0
7 *171:10 *536:B 2.13759e-06
*RES
1 *535:ZN *536:B 26.25 
*END

*D_NET *175 0.00083094
*CONN
*I *537:A I *D AOI21_X1
*I *536:ZN O *D OAI211_X1
*CAP
1 *537:A 0.000146076
2 *536:ZN 0.000146076
3 *537:A *538:A 3.05882e-05
4 *533:A2 *537:A 6.86111e-05
5 *534:B *537:A 7.80971e-05
6 *536:A *537:A 4.07526e-05
7 *536:B *537:A 1.4891e-05
8 *12:36 *537:A 0.000204482
9 *123:29 *537:A 2.86475e-06
10 *142:72 *537:A 8.10164e-05
11 *168:14 *537:A 2.39679e-06
12 *171:10 *537:A 1.50871e-05
*RES
1 *536:ZN *537:A 45.1429 
*END

*D_NET *176 0.000262394
*CONN
*I *538:A I *D OAI21_X1
*I *537:ZN O *D AOI21_X1
*CAP
1 *538:A 4.42201e-05
2 *537:ZN 4.42201e-05
3 *538:A *256:14 0
4 *537:A *538:A 3.05882e-05
5 *537:B2 *538:A 2.75346e-06
6 *12:36 *538:A 3.24856e-05
7 *168:14 *538:A 0.000108126
*RES
1 *537:ZN *538:A 27.6071 
*END

*D_NET *177 0.00110555
*CONN
*I *548:C2 I *D OAI211_X1
*I *539:ZN O *D XNOR2_X1
*CAP
1 *548:C2 0
2 *539:ZN 3.00948e-05
3 *177:14 0.000293309
4 *177:8 0.000323404
5 *177:14 *541:A3 0.000120408
6 *177:14 *548:A 3.25234e-05
7 *177:14 *185:20 1.34982e-05
8 *177:14 *256:12 1.37673e-05
9 *411:C2 *177:14 2.10286e-06
10 *540:A3 *177:14 2.87087e-05
11 *548:C1 *177:14 2.75346e-06
12 *46:10 *177:14 9.92485e-06
13 *91:27 *177:14 8.1183e-06
14 *96:10 *177:14 1.55645e-05
15 *97:10 *177:14 0.000211373
*RES
1 *539:ZN *177:8 12.75 
2 *177:8 *177:14 46.5357 
3 *177:14 *548:C2 5 
*END

*D_NET *178 0.000271603
*CONN
*I *541:A3 I *D OR3_X1
*I *540:ZN O *D AND3_X1
*CAP
1 *541:A3 3.21002e-05
2 *540:ZN 3.21002e-05
3 *541:A3 result[3] 7.19036e-06
4 *541:A3 *548:A 2.94455e-05
5 *455:B1 *541:A3 4.44127e-06
6 *455:B2 *541:A3 2.08098e-06
7 *540:A3 *541:A3 3.07768e-05
8 *541:A1 *541:A3 2.25089e-06
9 *541:A2 *541:A3 2.39679e-06
10 *91:27 *541:A3 8.41155e-06
11 *177:14 *541:A3 0.000120408
*RES
1 *540:ZN *541:A3 27.1071 
*END

*D_NET *179 0.000173412
*CONN
*I *548:A I *D OAI211_X1
*I *541:ZN O *D OR3_X1
*CAP
1 *548:A 3.27574e-05
2 *541:ZN 3.27574e-05
3 *541:A3 *548:A 2.94455e-05
4 *91:27 *548:A 4.59278e-05
5 *177:14 *548:A 3.25234e-05
*RES
1 *541:ZN *548:A 26.3571 
*END

*D_NET *180 0.000181056
*CONN
*I *543:B I *D OAI211_X1
*I *542:ZN O *D NAND3_X1
*CAP
1 *543:B 7.13856e-05
2 *542:ZN 7.13856e-05
3 *543:B *546:A1 1.39615e-05
4 *543:B *546:A2 5.83614e-06
5 *514:A *543:B 0
6 *543:A *543:B 4.08322e-06
7 *543:C1 *543:B 7.19036e-06
8 *544:A1 *543:B 7.21335e-06
9 *544:A3 *543:B 0
10 *143:25 *543:B 0
*RES
1 *542:ZN *543:B 19.25 
*END

*D_NET *181 0.000158156
*CONN
*I *546:A1 I *D NAND3_X1
*I *543:ZN O *D OAI211_X1
*CAP
1 *546:A1 5.14587e-05
2 *543:ZN 5.14587e-05
3 *546:A1 *546:A2 1.37673e-05
4 *543:A *546:A1 3.37286e-06
5 *543:B *546:A1 1.39615e-05
6 *544:A1 *546:A1 0
7 *143:25 *546:A1 2.41371e-05
*RES
1 *543:ZN *546:A1 16.6786 
*END

*D_NET *182 9.1972e-05
*CONN
*I *546:A2 I *D NAND3_X1
*I *544:ZN O *D NAND3_X1
*CAP
1 *546:A2 2.7789e-05
2 *544:ZN 2.7789e-05
3 *546:A2 *546:A3 1.67906e-05
4 *543:B *546:A2 5.83614e-06
5 *544:A1 *546:A2 0
6 *546:A1 *546:A2 1.37673e-05
*RES
1 *544:ZN *546:A2 14.2143 
*END

*D_NET *183 0.000126989
*CONN
*I *546:A3 I *D NAND3_X1
*I *545:ZN O *D NAND2_X1
*CAP
1 *546:A3 5.37226e-05
2 *545:ZN 5.37226e-05
3 *544:A1 *546:A3 2.75346e-06
4 *546:A2 *546:A3 1.67906e-05
5 *566:B2 *546:A3 0
6 *143:25 *546:A3 0
*RES
1 *545:ZN *546:A3 16.0357 
*END

*D_NET *184 0.00065668
*CONN
*I *547:A I *D AOI221_X1
*I *546:ZN O *D NAND3_X1
*CAP
1 *547:A 0.000154053
2 *546:ZN 0.000154053
3 *547:A *547:B2 0.000327283
4 *547:A *194:16 1.56071e-06
5 *547:A *354:42 2.75346e-06
6 *547:A *354:52 7.72792e-06
7 *547:C2 *547:A 7.72792e-06
8 *556:C2 *547:A 1.52083e-06
9 *3:37 *547:A 0
10 *11:30 *547:A 0
*RES
1 *546:ZN *547:A 42.0357 
*END

*D_NET *185 0.000700209
*CONN
*I *548:B I *D OAI211_X1
*I *547:ZN O *D AOI221_X1
*CAP
1 *548:B 0
2 *547:ZN 0.000297689
3 *185:20 0.000297689
4 *185:20 *556:B 4.32144e-07
5 *185:20 *556:C1 6.85774e-07
6 *185:20 *558:A 0
7 *185:20 *190:14 1.4898e-05
8 *185:20 *194:16 4.60756e-06
9 *185:20 *256:12 0
10 *541:A1 *185:20 2.24327e-06
11 *547:C2 *185:20 2.23415e-06
12 *548:C1 *185:20 7.16188e-07
13 *555:A2 *185:20 0
14 *556:A *185:20 5.29009e-05
15 *556:C2 *185:20 9.74193e-06
16 *2:55 *185:20 2.27053e-06
17 *2:57 *185:20 2.77917e-07
18 *91:27 *185:20 0
19 *97:23 *185:20 3.23723e-07
20 *177:14 *185:20 1.34982e-05
*RES
1 *547:ZN *185:20 47.8572 
2 *185:20 *548:B 5 
*END

*D_NET *186 0.000593121
*CONN
*I *559:B1 I *D OAI21_X1
*I *549:ZN O *D XNOR2_X1
*CAP
1 *559:B1 0.000221354
2 *549:ZN 0.000221354
3 *559:B1 *445:B 7.11905e-07
4 *559:B1 *450:B2 5.054e-05
5 *559:B1 *558:C1 0
6 *559:B1 *256:12 3.23844e-05
7 *559:B1 *259:6 1.86268e-05
8 *450:A *559:B1 8.75656e-06
9 *549:B *559:B1 5.57182e-06
10 *559:B2 *559:B1 8.43215e-07
11 *2:23 *559:B1 2.35012e-05
12 *10:17 *559:B1 0
13 *41:10 *559:B1 1.75163e-06
14 *87:6 *559:B1 7.72537e-06
*RES
1 *549:ZN *559:B1 48.3214 
*END

*D_NET *187 0.000239292
*CONN
*I *551:A2 I *D OR2_X1
*I *550:ZN O *D NOR3_X1
*CAP
1 *551:A2 9.31133e-05
2 *550:ZN 9.31133e-05
3 *551:A2 *569:B1 0
4 *449:B2 *551:A2 1.76665e-06
5 *550:A1 *551:A2 1.13571e-05
6 *569:B2 *551:A2 0
7 *91:8 *551:A2 3.99416e-05
8 *117:18 *551:A2 0
*RES
1 *550:ZN *551:A2 20.8571 
*END

*D_NET *188 0.000267597
*CONN
*I *552:A I *D INV_X1
*I *551:ZN O *D OR2_X1
*CAP
1 *552:A 0.000110765
2 *551:ZN 0.000110765
3 *552:A *558:B1 0
4 *552:A *559:A 0
5 *41:10 *552:A 6.97776e-06
6 *117:18 *552:A 3.90891e-05
*RES
1 *551:ZN *552:A 31.4643 
*END

*D_NET *189 0.000106898
*CONN
*I *558:B1 I *D AOI221_X1
*I *552:ZN O *D INV_X1
*CAP
1 *558:B1 4.06606e-05
2 *552:ZN 4.06606e-05
3 *558:B1 *558:A 1.32323e-05
4 *558:B1 *354:52 7.0013e-06
5 *552:A *558:B1 0
6 *558:B2 *558:B1 3.22834e-06
7 *117:18 *558:B1 2.11458e-06
*RES
1 *552:ZN *558:B1 24.2143 
*END

*D_NET *190 0.000587346
*CONN
*I *556:C1 I *D OAI211_X1
*I *557:C2 I *D OAI211_X1
*I *553:ZN O *D NAND2_X1
*CAP
1 *556:C1 5.63848e-06
2 *557:C2 5.24204e-05
3 *553:ZN 9.09688e-05
4 *190:14 0.000149028
5 *557:C2 *557:B 5.83224e-05
6 *557:C2 *357:49 7.0209e-05
7 *190:14 *556:B 7.27563e-05
8 *190:14 *557:B 7.66675e-07
9 *190:14 *558:A 2.87704e-06
10 *190:14 *194:16 3.47242e-06
11 *547:C2 *556:C1 7.19036e-06
12 *547:C2 *557:C2 0
13 *547:C2 *190:14 0
14 *554:B2 *557:C2 7.72792e-06
15 *555:A2 *190:14 4.06546e-05
16 *556:A *556:C1 2.75346e-06
17 *2:55 *190:14 6.97673e-06
18 *2:57 *557:C2 0
19 *2:57 *190:14 0
20 *185:20 *556:C1 6.85774e-07
21 *185:20 *190:14 1.4898e-05
*RES
1 *553:ZN *190:14 22.5714 
2 *190:14 *557:C2 17.1071 
3 *190:14 *556:C1 10.75 
*END

*D_NET *191 7.86181e-05
*CONN
*I *557:A I *D OAI211_X1
*I *554:ZN O *D AOI22_X1
*CAP
1 *557:A 2.6017e-05
2 *554:ZN 2.6017e-05
3 *557:A *554:A2 4.50122e-06
4 *557:A *357:66 8.02296e-06
5 *554:B2 *557:A 1.13064e-05
6 *557:C1 *557:A 2.75346e-06
*RES
1 *554:ZN *557:A 13.25 
*END

*D_NET *192 0.00018978
*CONN
*I *556:B I *D OAI211_X1
*I *555:ZN O *D OR2_X1
*CAP
1 *556:B 4.68456e-05
2 *555:ZN 4.68456e-05
3 *556:B *558:A 5.44039e-06
4 *556:B *194:16 1.74602e-05
5 *185:20 *556:B 4.32144e-07
6 *190:14 *556:B 7.27563e-05
*RES
1 *555:ZN *556:B 26.2143 
*END

*D_NET *193 0.000164231
*CONN
*I *557:B I *D OAI211_X1
*I *556:ZN O *D OAI211_X1
*CAP
1 *557:B 3.86226e-05
2 *556:ZN 3.86226e-05
3 *557:B *194:16 2.78964e-05
4 *557:C2 *557:B 5.83224e-05
5 *190:14 *557:B 7.66675e-07
*RES
1 *556:ZN *557:B 25.6429 
*END

*D_NET *194 0.000873124
*CONN
*I *558:A I *D AOI221_X1
*I *557:ZN O *D OAI211_X1
*CAP
1 *558:A 0.00022185
2 *557:ZN 0.000105752
3 *194:16 0.000327602
4 *558:A *354:52 2.8284e-05
5 *194:16 *357:66 7.72537e-06
6 *547:A *194:16 1.56071e-06
7 *547:C1 *194:16 0
8 *556:A *194:16 3.04732e-06
9 *556:B *558:A 5.44039e-06
10 *556:B *194:16 1.74602e-05
11 *556:C2 *194:16 5.57182e-06
12 *557:B *194:16 2.78964e-05
13 *557:C1 *194:16 3.65322e-06
14 *558:B1 *558:A 1.32323e-05
15 *2:55 *558:A 5.50748e-05
16 *91:27 *558:A 2.90713e-05
17 *117:18 *558:A 8.94571e-06
18 *185:20 *558:A 0
19 *185:20 *194:16 4.60756e-06
20 *190:14 *558:A 2.87704e-06
21 *190:14 *194:16 3.47242e-06
*RES
1 *557:ZN *194:16 27 
2 *194:16 *558:A 30.75 
*END

*D_NET *195 0.000228764
*CONN
*I *559:A I *D OAI21_X1
*I *558:ZN O *D AOI221_X1
*CAP
1 *559:A 7.94657e-05
2 *558:ZN 7.94657e-05
3 *559:A *558:C1 6.98328e-05
4 *552:A *559:A 0
*RES
1 *558:ZN *559:A 30.4286 
*END

*D_NET *196 0.000192088
*CONN
*I *568:B1 I *D AOI221_X1
*I *560:Z O *D XOR2_X1
*CAP
1 *568:B1 8.06796e-05
2 *560:Z 8.06796e-05
3 *568:B1 *568:A 2.75346e-06
4 *568:B1 *204:10 1.3638e-05
5 *568:B2 *568:B1 2.75346e-06
6 *1:64 *568:B1 0
7 *9:46 *568:B1 0
8 *41:8 *568:B1 1.15841e-05
*RES
1 *560:Z *568:B1 19.25 
*END

*D_NET *197 0.000237775
*CONN
*I *562:B I *D XNOR2_X1
*I *561:ZN O *D XNOR2_X1
*CAP
1 *562:B 0.000108506
2 *561:ZN 0.000108506
3 *85:6 *562:B 2.07643e-05
4 *86:10 *562:B 0
*RES
1 *561:ZN *562:B 31.1071 
*END

*D_NET *198 0.000344679
*CONN
*I *569:B1 I *D OAI21_X1
*I *562:ZN O *D XNOR2_X1
*CAP
1 *569:B1 0.000160367
2 *562:ZN 0.000160367
3 *550:A2 *569:B1 0
4 *551:A1 *569:B1 0
5 *551:A2 *569:B1 0
6 *569:B2 *569:B1 8.43215e-07
7 *86:10 *569:B1 2.31008e-05
*RES
1 *562:ZN *569:B1 26.7857 
*END

*D_NET *199 0.000292174
*CONN
*I *566:B1 I *D AOI222_X1
*I *564:B2 I *D OAI21_X1
*I *563:ZN O *D AND2_X1
*CAP
1 *566:B1 0
2 *564:B2 6.53729e-05
3 *563:ZN 4.75698e-05
4 *199:8 0.000112943
5 *199:8 *567:A2 0
6 *563:A2 *199:8 3.88456e-06
7 *564:A *564:B2 4.32298e-05
8 *566:B2 *199:8 2.39679e-06
9 *566:C1 *199:8 2.39679e-06
10 *1:90 *199:8 1.43813e-05
*RES
1 *563:ZN *199:8 10.5357 
2 *199:8 *564:B2 21.3571 
3 *199:8 *566:B1 5 
*END

*D_NET *200 0.000403176
*CONN
*I *565:A I *D OAI21_X1
*I *564:ZN O *D OAI21_X1
*CAP
1 *565:A 0.00013167
2 *564:ZN 0.00013167
3 *565:A *567:A1 2.94435e-05
4 *565:A *567:A2 6.48216e-07
5 *563:A2 *565:A 7.19036e-06
6 *568:B2 *565:A 2.41394e-05
7 *1:70 *565:A 2.37916e-06
8 *1:77 *565:A 0
9 *1:90 *565:A 0
10 *9:46 *565:A 2.39679e-06
11 *70:67 *565:A 1.88335e-05
12 *117:10 *565:A 5.48052e-05
*RES
1 *564:ZN *565:A 37.2143 
*END

*D_NET *201 0.000154931
*CONN
*I *567:A1 I *D NAND2_X1
*I *565:ZN O *D OAI21_X1
*CAP
1 *567:A1 2.43992e-05
2 *565:ZN 2.43992e-05
3 *565:A *567:A1 2.94435e-05
4 *1:70 *567:A1 2.01395e-05
5 *9:46 *567:A1 4.26902e-05
6 *117:10 *567:A1 1.38599e-05
*RES
1 *565:ZN *567:A1 25 
*END

*D_NET *202 0.000216564
*CONN
*I *567:A2 I *D NAND2_X1
*I *566:ZN O *D AOI222_X1
*CAP
1 *567:A2 0.000104281
2 *566:ZN 0.000104281
3 *563:A2 *567:A2 7.35445e-06
4 *565:A *567:A2 6.48216e-07
5 *1:90 *567:A2 0
6 *143:25 *567:A2 0
7 *199:8 *567:A2 0
*RES
1 *566:ZN *567:A2 20.3571 
*END

*D_NET *203 0.000146401
*CONN
*I *568:A I *D AOI221_X1
*I *567:ZN O *D NAND2_X1
*CAP
1 *568:A 6.08013e-05
2 *567:ZN 6.08013e-05
3 *568:B1 *568:A 2.75346e-06
4 *568:B2 *568:A 8.02532e-06
5 *9:46 *568:A 0
6 *143:25 *568:A 1.40196e-05
*RES
1 *567:ZN *568:A 16.8929 
*END

*D_NET *204 0.000717342
*CONN
*I *569:A I *D OAI21_X1
*I *568:ZN O *D AOI221_X1
*CAP
1 *569:A 0
2 *568:ZN 0.000311082
3 *204:10 0.000311082
4 *204:10 *258:10 2.32458e-06
5 *568:B1 *204:10 1.3638e-05
6 *1:64 *204:10 4.01289e-05
7 *41:8 *204:10 3.90865e-05
8 *41:10 *204:10 0
*RES
1 *568:ZN *204:10 45.9643 
2 *204:10 *569:A 10 
*END

*D_NET *205 0.00021977
*CONN
*I *572:B I *D XNOR2_X1
*I *571:A2 I *D AND2_X1
*I *570:Z O *D XOR2_X1
*CAP
1 *572:B 4.41155e-05
2 *571:A2 7.85933e-06
3 *570:Z 3.94252e-05
4 *205:8 9.14001e-05
5 *205:8 *622:B1 0
6 *571:A1 *571:A2 1.10138e-05
7 *571:A1 *205:8 2.20718e-05
8 *572:A *571:A2 0
9 *572:A *572:B 3.88456e-06
10 *572:A *205:8 0
*RES
1 *570:Z *205:8 9.17857 
2 *205:8 *571:A2 6.25 
3 *205:8 *572:B 10 
*END

*D_NET *206 0.00053036
*CONN
*I *605:A I *D AOI21_X1
*I *571:ZN O *D AND2_X1
*CAP
1 *605:A 0.000157076
2 *571:ZN 0.000157076
3 *605:A *574:A 2.55787e-06
4 *605:A *608:B 0.000105832
5 *605:A *610:A 3.09411e-06
6 *605:A *622:B1 0
7 *605:A *244:12 0.000104724
*RES
1 *571:ZN *605:A 38.9286 
*END

*D_NET *207 0.000644451
*CONN
*I *605:B1 I *D AOI21_X1
*I *573:A2 I *D NOR2_X1
*I *574:B I *D XNOR2_X1
*I *572:ZN O *D XNOR2_X1
*CAP
1 *605:B1 7.58724e-06
2 *573:A2 6.15019e-05
3 *574:B 0
4 *572:ZN 0.000132044
5 *207:14 0.000102432
6 *207:8 0.000180561
7 *573:A2 *573:A1 3.82997e-06
8 *573:A2 *574:A 1.6345e-05
9 *573:A2 *606:A 9.62051e-07
10 *573:A2 *606:B2 5.04378e-06
11 *573:A2 *209:10 3.65322e-06
12 *605:B1 *606:A 1.76665e-06
13 *207:8 *574:A 4.13477e-05
14 *207:8 *605:B2 3.1623e-05
15 *207:8 *606:A 1.83053e-06
16 *207:14 *574:A 4.25552e-05
17 *207:14 *606:A 8.26468e-06
18 *572:A *207:8 3.10376e-06
*RES
1 *572:ZN *207:8 19.6786 
2 *207:8 *207:14 5.92857 
3 *207:14 *574:B 5 
4 *207:14 *573:A2 12.3571 
5 *207:8 *605:B1 5.92857 
*END

*D_NET *208 0.000177505
*CONN
*I *606:B2 I *D OAI221_X1
*I *573:ZN O *D NOR2_X1
*CAP
1 *606:B2 3.36344e-05
2 *573:ZN 3.36344e-05
3 *606:B2 *573:A1 1.75939e-05
4 *606:B2 *606:A 3.02372e-05
5 *606:B2 *606:B1 1.60038e-06
6 *606:B2 *610:A 4.80119e-06
7 *606:B2 *209:10 5.09598e-05
8 *573:A2 *606:B2 5.04378e-06
*RES
1 *573:ZN *606:B2 25.5357 
*END

*D_NET *209 0.000698963
*CONN
*I *578:A I *D XNOR2_X1
*I *606:C2 I *D OAI221_X1
*I *574:ZN O *D XNOR2_X1
*CAP
1 *578:A 6.86484e-05
2 *606:C2 7.56767e-06
3 *574:ZN 3.45957e-05
4 *209:10 0.000110812
5 *578:A *573:A1 9.32271e-05
6 *578:A *606:B1 0
7 *606:C2 *606:B1 2.52965e-06
8 *209:10 *573:A1 2.57883e-05
9 *209:10 *606:A 1.86051e-05
10 *209:10 *610:A 3.01743e-06
11 *573:A2 *209:10 3.65322e-06
12 *606:B2 *209:10 5.09598e-05
13 *606:C1 *578:A 0.000277675
14 *65:14 *578:A 1.88334e-06
*RES
1 *574:ZN *209:10 15.75 
2 *209:10 *606:C2 10.75 
3 *209:10 *578:A 25.8571 
*END

*D_NET *210 0.00100993
*CONN
*I *576:A I *D INV_X1
*I *606:B1 I *D OAI221_X1
*I *575:ZN O *D AOI21_X1
*CAP
1 *576:A 0
2 *606:B1 0.000223509
3 *575:ZN 0.000267948
4 *210:10 0.000491457
5 *606:B1 *573:A1 2.1651e-05
6 *606:B1 *578:B 0
7 *210:10 *578:B 0
8 *210:10 *579:B2 0
9 *508:B2 *210:10 0
10 *578:A *606:B1 0
11 *606:B2 *606:B1 1.60038e-06
12 *606:C2 *606:B1 2.52965e-06
13 *64:10 *210:10 0
14 *65:14 *606:B1 1.23214e-06
*RES
1 *575:ZN *210:10 36.5357 
2 *210:10 *606:B1 34.6786 
3 *210:10 *576:A 10 
*END

*D_NET *211 0.000110211
*CONN
*I *577:A I *D AOI21_X1
*I *576:ZN O *D INV_X1
*CAP
1 *577:A 5.27611e-05
2 *576:ZN 5.27611e-05
3 *577:A *578:B 0
4 *508:B2 *577:A 4.47286e-06
5 *577:B2 *577:A 2.16072e-07
*RES
1 *576:ZN *577:A 15.3571 
*END

*D_NET *212 0.000329925
*CONN
*I *578:B I *D XNOR2_X1
*I *577:ZN O *D AOI21_X1
*CAP
1 *578:B 0.000104741
2 *577:ZN 0.000104741
3 *423:A2 *578:B 2.16603e-05
4 *430:A1 *578:B 1.32323e-05
5 *508:B2 *578:B 0
6 *577:A *578:B 0
7 *606:B1 *578:B 0
8 *65:14 *578:B 8.55494e-05
9 *210:10 *578:B 0
*RES
1 *577:ZN *578:B 33.2143 
*END

*D_NET *213 0.000504718
*CONN
*I *595:C2 I *D OAI221_X1
*I *578:ZN O *D XNOR2_X1
*CAP
1 *595:C2 0.000223498
2 *578:ZN 0.000223498
3 *595:C2 *586:A2 0
4 *595:C2 *587:B1 0
5 *595:C2 *595:A 2.39679e-06
6 *595:C2 *264:8 0
7 *595:C2 *265:8 4.88571e-05
8 *508:B1 *595:C2 0
9 *508:B2 *595:C2 0
10 *595:C1 *595:C2 6.46697e-06
11 *149:14 *595:C2 0
*RES
1 *578:ZN *595:C2 42.6429 
*END

*D_NET *214 0.000268036
*CONN
*I *580:A I *D INV_X1
*I *579:ZN O *D AOI21_X1
*CAP
1 *580:A 0.000134018
2 *579:ZN 0.000134018
3 *580:A *471:A 0
*RES
1 *579:ZN *580:A 34.3571 
*END

*D_NET *215 0.000840196
*CONN
*I *586:A2 I *D NOR3_X1
*I *587:B1 I *D OAI21_X1
*I *580:ZN O *D INV_X1
*CAP
1 *586:A2 2.10766e-05
2 *587:B1 9.38714e-05
3 *580:ZN 0.000171468
4 *215:10 0.000286416
5 *586:A2 *586:A3 7.19036e-06
6 *587:B1 *263:12 0
7 *587:B1 *265:8 0
8 *587:B1 *265:10 0
9 *215:10 *263:12 0
10 *586:A1 *586:A2 1.26998e-05
11 *587:B2 *587:B1 4.49575e-05
12 *595:C1 *587:B1 5.56848e-05
13 *595:C1 *215:10 3.81944e-05
14 *595:C2 *586:A2 0
15 *595:C2 *587:B1 0
16 *70:16 *587:B1 0
17 *71:12 *586:A2 4.32144e-07
18 *71:27 *215:10 0.000108205
*RES
1 *580:ZN *215:10 29.4643 
2 *215:10 *587:B1 21.3214 
3 *215:10 *586:A2 12.25 
*END

*D_NET *216 0.0002288
*CONN
*I *582:B I *D XNOR2_X1
*I *596:C2 I *D OAI211_X1
*I *581:ZN O *D XNOR2_X1
*CAP
1 *582:B 1.45077e-05
2 *596:C2 3.76562e-05
3 *581:ZN 2.64994e-05
4 *216:8 7.86633e-05
5 *582:B *581:B 0
6 *582:B *596:A 1.65484e-05
7 *596:C2 *581:B 0
8 *596:C2 *583:A2 0
9 *596:C2 *596:A 1.65458e-05
10 *216:8 *583:A2 9.57492e-07
11 *216:8 *600:A 9.62051e-07
12 *596:C1 *596:C2 1.21774e-06
13 *8:48 *596:C2 0
14 *8:57 *596:C2 8.41402e-06
15 *16:24 *596:C2 2.06764e-05
16 *16:24 *216:8 6.15137e-06
17 *16:28 *596:C2 0
*RES
1 *581:ZN *216:8 12.75 
2 *216:8 *596:C2 15.5714 
3 *216:8 *582:B 12.2857 
*END

*D_NET *217 0.000273599
*CONN
*I *584:B I *D XNOR2_X1
*I *583:A2 I *D NAND2_X1
*I *582:ZN O *D XNOR2_X1
*CAP
1 *584:B 4.17836e-05
2 *583:A2 6.91708e-05
3 *582:ZN 0
4 *217:4 0.000110954
5 *583:A2 *583:A1 1.21774e-06
6 *583:A2 *584:A 0
7 *583:A2 *596:A 1.27114e-05
8 *583:A2 *596:B 0
9 *584:B *581:B 5.32484e-06
10 *584:B *584:A 7.72792e-06
11 *584:B *596:A 4.12911e-06
12 *596:C2 *583:A2 0
13 *8:70 *584:B 1.65274e-05
14 *70:16 *583:A2 0
15 *70:16 *584:B 3.09411e-06
16 *216:8 *583:A2 9.57492e-07
*RES
1 *582:ZN *217:4 5 
2 *217:4 *583:A2 12.1786 
3 *217:4 *584:B 20.75 
*END

*D_NET *218 0.000289644
*CONN
*I *596:A I *D OAI211_X1
*I *583:ZN O *D NAND2_X1
*CAP
1 *596:A 6.00454e-05
2 *583:ZN 6.00454e-05
3 *596:A *581:B 0
4 *582:B *596:A 1.65484e-05
5 *583:A2 *596:A 1.27114e-05
6 *584:B *596:A 4.12911e-06
7 *596:C2 *596:A 1.65458e-05
8 *8:57 *596:A 6.89712e-05
9 *8:70 *596:A 5.06473e-05
10 *70:16 *596:A 0
*RES
1 *583:ZN *596:A 29.6071 
*END

*D_NET *219 0.00031918
*CONN
*I *585:A I *D INV_X1
*I *584:ZN O *D XNOR2_X1
*CAP
1 *585:A 4.49239e-05
2 *584:ZN 4.49239e-05
3 *585:A *583:A1 9.52105e-05
4 *585:A *596:B 9.52105e-05
5 *70:16 *585:A 3.89107e-05
*RES
1 *584:ZN *585:A 28.75 
*END

*D_NET *220 0.000688366
*CONN
*I *586:A3 I *D NOR3_X1
*I *587:A I *D OAI21_X1
*I *585:ZN O *D INV_X1
*CAP
1 *586:A3 4.32354e-05
2 *587:A 0
3 *585:ZN 0.000109181
4 *220:12 0.000152417
5 *586:A3 *595:B2 0.000105041
6 *586:A3 *262:8 2.53735e-05
7 *220:12 *595:B1 0
8 *220:12 *596:B 5.11574e-06
9 *220:12 *222:10 3.96215e-05
10 *220:12 *262:8 5.4236e-05
11 *586:A2 *586:A3 7.19036e-06
12 *587:B2 *586:A3 0.000131009
13 *587:B2 *220:12 1.52975e-05
14 *595:C1 *586:A3 6.48216e-07
15 *70:16 *220:12 0
*RES
1 *585:ZN *220:12 22.8214 
2 *220:12 *587:A 10 
3 *220:12 *586:A3 19.4643 
*END

*D_NET *221 0.000323313
*CONN
*I *595:B2 I *D OAI221_X1
*I *586:ZN O *D NOR3_X1
*CAP
1 *595:B2 2.95326e-05
2 *586:ZN 2.95326e-05
3 *595:B2 *262:8 0.000146147
4 *586:A3 *595:B2 0.000105041
5 *587:B2 *595:B2 8.25592e-06
6 *114:27 *595:B2 4.80378e-06
*RES
1 *586:ZN *595:B2 27.7143 
*END

*D_NET *222 0.00084174
*CONN
*I *588:A2 I *D NAND2_X1
*I *596:B I *D OAI211_X1
*I *587:ZN O *D OAI21_X1
*CAP
1 *588:A2 0
2 *596:B 0.000240727
3 *587:ZN 5.38149e-05
4 *222:10 0.000294542
5 *596:B *570:B 3.02372e-05
6 *596:B *583:A1 5.67186e-05
7 *596:B *257:8 0
8 *222:10 *595:A 0
9 *222:10 *595:B1 0
10 *583:A2 *596:B 0
11 *585:A *596:B 9.52105e-05
12 *588:A1 *596:B 1.30416e-05
13 *596:C1 *596:B 1.27114e-05
14 *8:57 *596:B 0
15 *8:70 *596:B 0
16 *220:12 *596:B 5.11574e-06
17 *220:12 *222:10 3.96215e-05
*RES
1 *587:ZN *222:10 11.9643 
2 *222:10 *596:B 44.0714 
3 *222:10 *588:A2 5 
*END

*D_NET *223 0.000125548
*CONN
*I *595:B1 I *D OAI221_X1
*I *588:ZN O *D NAND2_X1
*CAP
1 *595:B1 4.70513e-05
2 *588:ZN 4.70513e-05
3 *595:B1 *595:A 2.87369e-05
4 *588:A1 *595:B1 2.70833e-06
5 *220:12 *595:B1 0
6 *222:10 *595:B1 0
*RES
1 *588:ZN *595:B1 15.1071 
*END

*D_NET *224 0.000538811
*CONN
*I *591:C1 I *D OAI211_X1
*I *593:C2 I *D OAI211_X1
*I *589:ZN O *D NAND2_X1
*CAP
1 *591:C1 5.11226e-05
2 *593:C2 1.16228e-05
3 *589:ZN 2.21394e-05
4 *224:8 8.48848e-05
5 *591:C1 *592:B2 8.23024e-05
6 *591:C1 *593:A 6.25689e-05
7 *591:C1 *593:B 3.15557e-06
8 *591:C1 *356:14 4.26319e-06
9 *224:8 *592:B2 0.00012095
10 *505:B2 *591:C1 7.48003e-06
11 *505:B2 *224:8 2.19425e-05
12 *590:A2 *224:8 5.67661e-05
13 *591:A *591:C1 2.39679e-06
14 *591:C2 *591:C1 1.68643e-06
15 *123:72 *593:C2 5.52959e-06
*RES
1 *589:ZN *224:8 16.3571 
2 *224:8 *593:C2 11.25 
3 *224:8 *591:C1 18.0714 
*END

*D_NET *225 0.000271782
*CONN
*I *591:B I *D OAI211_X1
*I *590:ZN O *D OR2_X1
*CAP
1 *591:B 0.00010691
2 *590:ZN 0.00010691
3 *591:B *592:B2 4.81344e-06
4 *591:C2 *591:B 5.31485e-05
5 *123:72 *591:B 0
*RES
1 *590:ZN *591:B 30.9643 
*END

*D_NET *226 0.000182253
*CONN
*I *593:A I *D OAI211_X1
*I *591:ZN O *D OAI211_X1
*CAP
1 *593:A 4.07815e-05
2 *591:ZN 4.07815e-05
3 *593:A *592:B2 2.64848e-06
4 *593:A *593:B 1.72405e-05
5 *505:B2 *593:A 2.37916e-06
6 *591:C1 *593:A 6.25689e-05
7 *591:C2 *593:A 2.39679e-06
8 *123:72 *593:A 1.34558e-05
*RES
1 *591:ZN *593:A 26.1071 
*END

*D_NET *227 0.000112928
*CONN
*I *593:B I *D OAI211_X1
*I *592:ZN O *D AOI22_X1
*CAP
1 *593:B 2.5877e-05
2 *592:ZN 2.5877e-05
3 *593:B *592:B2 5.55566e-07
4 *593:B *356:22 1.66988e-05
5 *505:B2 *593:B 2.35237e-05
6 *591:C1 *593:B 3.15557e-06
7 *591:C2 *593:B 0
8 *593:A *593:B 1.72405e-05
*RES
1 *592:ZN *593:B 23.6429 
*END

*D_NET *228 0.000283953
*CONN
*I *594:A I *D AOI21_X1
*I *593:ZN O *D OAI211_X1
*CAP
1 *594:A 0.000140859
2 *593:ZN 0.000140859
3 *592:A1 *594:A 0
4 *8:70 *594:A 2.23415e-06
*RES
1 *593:ZN *594:A 24.3214 
*END

*D_NET *229 0.000506505
*CONN
*I *595:A I *D OAI221_X1
*I *594:ZN O *D AOI21_X1
*CAP
1 *595:A 0.000213205
2 *594:ZN 0.000213205
3 *595:A *257:8 4.89613e-05
4 *595:A *262:8 0
5 *595:B1 *595:A 2.87369e-05
6 *595:C2 *595:A 2.39679e-06
7 *71:12 *595:A 0
8 *222:10 *595:A 0
*RES
1 *594:ZN *595:A 44.6786 
*END

*D_NET *230 0.000494812
*CONN
*I *600:A I *D XNOR2_X1
*I *596:ZN O *D OAI211_X1
*CAP
1 *600:A 0.000202539
2 *596:ZN 0.000202539
3 *600:A *597:B 4.62359e-05
4 *600:A *598:B 1.78845e-05
5 *600:A *600:B 6.32202e-06
6 *8:48 *600:A 0
7 *16:24 *600:A 1.83288e-05
8 *216:8 *600:A 9.62051e-07
*RES
1 *596:ZN *600:A 44.1072 
*END

*D_NET *231 0.000238267
*CONN
*I *599:A I *D XNOR2_X1
*I *597:Z O *D XOR2_X1
*CAP
1 *599:A 0.000113224
2 *597:Z 0.000113224
3 *599:A *598:A 6.38328e-07
4 *599:A *598:B 0
5 *599:A *599:B 0
6 *599:A *600:B 1.11799e-05
*RES
1 *597:Z *599:A 21.8571 
*END

*D_NET *232 0.000233313
*CONN
*I *599:B I *D XNOR2_X1
*I *598:ZN O *D XNOR2_X1
*CAP
1 *599:B 0.000107009
2 *598:ZN 0.000107009
3 *599:B *598:B 7.84048e-06
4 *599:B *600:B 1.14555e-05
5 *599:A *599:B 0
*RES
1 *598:ZN *599:B 21.2143 
*END

*D_NET *233 0.000517178
*CONN
*I *600:B I *D XNOR2_X1
*I *599:ZN O *D XNOR2_X1
*CAP
1 *600:B 0.000169292
2 *599:ZN 0.000169292
3 *600:B *597:B 5.75417e-05
4 *600:B *598:B 7.53747e-05
5 *600:B *622:B1 1.67209e-05
6 *599:A *600:B 1.11799e-05
7 *599:B *600:B 1.14555e-05
8 *600:A *600:B 6.32202e-06
*RES
1 *599:ZN *600:B 44 
*END

*D_NET *234 0.000176346
*CONN
*I *622:C2 I *D OAI221_X1
*I *600:ZN O *D XNOR2_X1
*CAP
1 *622:C2 6.83442e-05
2 *600:ZN 6.83442e-05
3 *622:C2 *622:B1 3.65634e-05
4 *622:C1 *622:C2 3.09411e-06
*RES
1 *600:ZN *622:C2 18.25 
*END

*D_NET *235 0.000156939
*CONN
*I *604:A1 I *D NAND3_X1
*I *601:ZN O *D XNOR2_X1
*CAP
1 *604:A1 6.64977e-05
2 *601:ZN 6.64977e-05
3 *604:A1 *601:A 0
4 *604:A1 *604:A3 8.43215e-07
5 *604:A1 *238:10 2.31008e-05
*RES
1 *601:ZN *604:A1 17.2143 
*END

*D_NET *236 0.000269733
*CONN
*I *604:A2 I *D NAND3_X1
*I *602:ZN O *D XNOR2_X1
*CAP
1 *604:A2 8.4401e-05
2 *602:ZN 8.4401e-05
3 *604:A2 *601:A 0
4 *604:A2 *602:A 1.00571e-05
5 *604:A2 *602:B 0
6 *604:A2 *603:B 3.5704e-05
7 *604:A2 *351:13 5.51703e-05
*RES
1 *602:ZN *604:A2 31.9643 
*END

*D_NET *237 7.07443e-05
*CONN
*I *604:A3 I *D NAND3_X1
*I *603:ZN O *D XNOR2_X1
*CAP
1 *604:A3 3.49506e-05
2 *603:ZN 3.49506e-05
3 *604:A3 *601:A 0
4 *604:A1 *604:A3 8.43215e-07
*RES
1 *603:ZN *604:A3 13.5357 
*END

*D_NET *238 0.00123232
*CONN
*I *621:B2 I *D AOI221_X1
*I *622:B2 I *D OAI221_X1
*I *604:ZN O *D NAND3_X1
*CAP
1 *621:B2 2.79217e-05
2 *622:B2 5.86412e-05
3 *604:ZN 0.000243925
4 *238:10 0.000330488
5 *621:B2 *385:A 8.93834e-05
6 *621:B2 *621:B1 7.19036e-06
7 *621:B2 *621:C2 2.38892e-05
8 *622:B2 *620:A2 1.87637e-06
9 *622:B2 *621:A 0
10 *622:B2 *622:B1 2.75346e-06
11 *238:10 *385:A 6.97608e-05
12 *238:10 *601:A 0
13 *238:10 *601:B 0.00031533
14 *238:10 *602:B 0
15 *604:A1 *238:10 2.31008e-05
16 *8:48 *621:B2 2.42675e-05
17 *8:48 *622:B2 8.26038e-06
18 *17:8 *622:B2 5.52959e-06
19 *17:10 *621:B2 0
20 *17:10 *238:10 0
*RES
1 *604:ZN *238:10 43.1072 
2 *238:10 *622:B2 16.25 
3 *238:10 *621:B2 15.75 
*END

*D_NET *239 0.000302403
*CONN
*I *606:A I *D OAI221_X1
*I *605:ZN O *D AOI21_X1
*CAP
1 *606:A 9.51594e-05
2 *605:ZN 9.51594e-05
3 *606:A *610:A 5.04182e-05
4 *573:A2 *606:A 9.62051e-07
5 *605:B1 *606:A 1.76665e-06
6 *606:B2 *606:A 3.02372e-05
7 *207:8 *606:A 1.83053e-06
8 *207:14 *606:A 8.26468e-06
9 *209:10 *606:A 1.86051e-05
*RES
1 *605:ZN *606:A 31.8214 
*END

*D_NET *240 0.000360375
*CONN
*I *610:A I *D XNOR2_X1
*I *606:ZN O *D OAI221_X1
*CAP
1 *610:A 0.000149522
2 *606:ZN 0.000149522
3 *610:A *574:A 0
4 *610:A *608:B 0
5 *610:A *610:B 0
6 *605:A *610:A 3.09411e-06
7 *606:A *610:A 5.04182e-05
8 *606:B2 *610:A 4.80119e-06
9 *209:10 *610:A 3.01743e-06
*RES
1 *606:ZN *610:A 35.6786 
*END

*D_NET *241 0.000210944
*CONN
*I *609:A I *D XNOR2_X1
*I *607:Z O *D XOR2_X1
*CAP
1 *609:A 6.17201e-05
2 *607:Z 6.17201e-05
3 *609:A *609:B 8.75034e-05
*RES
1 *607:Z *609:A 18.25 
*END

*D_NET *242 0.000456015
*CONN
*I *609:B I *D XNOR2_X1
*I *608:ZN O *D XNOR2_X1
*CAP
1 *609:B 0.000114069
2 *608:ZN 0.000114069
3 *609:B *607:B 0.000108728
4 *609:B *608:A 0
5 *609:B *608:B 0
6 *609:B *610:B 3.16454e-05
7 *609:A *609:B 8.75034e-05
*RES
1 *608:ZN *609:B 37.25 
*END

*D_NET *243 0.000415163
*CONN
*I *610:B I *D XNOR2_X1
*I *609:ZN O *D XNOR2_X1
*CAP
1 *610:B 0.000171661
2 *609:ZN 0.000171661
3 *610:B *607:B 1.4293e-06
4 *610:B *608:B 3.8766e-05
5 *609:B *610:B 3.16454e-05
6 *610:A *610:B 0
*RES
1 *609:ZN *610:B 40.7143 
*END

*D_NET *244 0.00119471
*CONN
*I *622:B1 I *D OAI221_X1
*I *610:ZN O *D XNOR2_X1
*CAP
1 *622:B1 0.000322537
2 *610:ZN 0.000114153
3 *244:12 0.00043669
4 *622:B1 *608:A 0
5 *244:12 *574:A 1.83867e-05
6 *244:12 *262:8 0.000106872
7 *570:A *622:B1 3.05089e-05
8 *571:A1 *622:B1 4.80114e-06
9 *600:B *622:B1 1.67209e-05
10 *605:A *622:B1 0
11 *605:A *244:12 0.000104724
12 *622:B2 *622:B1 2.75346e-06
13 *622:C2 *622:B1 3.65634e-05
14 *205:8 *622:B1 0
*RES
1 *610:ZN *244:12 30.9286 
2 *244:12 *622:B1 39.9286 
*END

*D_NET *245 0.000145749
*CONN
*I *614:A1 I *D NOR3_X1
*I *611:Z O *D XOR2_X1
*CAP
1 *614:A1 7.28747e-05
2 *611:Z 7.28747e-05
3 *614:A1 *614:A3 0
4 *614:A1 *252:12 0
*RES
1 *611:Z *614:A1 17.2143 
*END

*D_NET *246 0.000277965
*CONN
*I *614:A2 I *D NOR3_X1
*I *612:Z O *D XOR2_X1
*CAP
1 *614:A2 9.36929e-05
2 *612:Z 9.36929e-05
3 *614:A2 *614:A3 0
4 *614:A2 *351:13 5.64879e-06
5 *614:A2 *351:17 3.35796e-05
6 *614:A2 *351:48 5.13505e-05
*RES
1 *612:Z *614:A2 31.9643 
*END

*D_NET *247 0.000256138
*CONN
*I *614:A3 I *D NOR3_X1
*I *613:Z O *D XOR2_X1
*CAP
1 *614:A3 0.000122477
2 *613:Z 0.000122477
3 *614:A3 *350:30 0
4 *614:A3 *351:17 1.11844e-05
5 *614:A1 *614:A3 0
6 *614:A2 *614:A3 0
*RES
1 *613:Z *614:A3 22.3929 
*END

*D_NET *248 0.000311219
*CONN
*I *619:A3 I *D NOR4_X1
*I *620:A2 I *D AND2_X1
*I *614:ZN O *D NOR3_X1
*CAP
1 *619:A3 3.74415e-05
2 *620:A2 4.62686e-05
3 *614:ZN 6.65457e-05
4 *248:10 0.000150256
5 *619:A3 *385:A 0
6 *620:A2 *621:C2 6.07779e-06
7 *248:10 *385:A 0
8 *248:10 *252:12 0
9 *622:B2 *620:A2 1.87637e-06
10 *8:48 *620:A2 2.75346e-06
*RES
1 *614:ZN *248:10 16.3571 
2 *248:10 *620:A2 14.75 
3 *248:10 *619:A3 13.6429 
*END

*D_NET *249 0.000200171
*CONN
*I *618:A1 I *D NOR3_X1
*I *615:Z O *D XOR2_X1
*CAP
1 *618:A1 3.09614e-05
2 *615:Z 3.09614e-05
3 *618:A1 *616:B 2.63981e-05
4 *618:A1 *618:A2 0.000107411
5 *618:A1 *350:40 4.43868e-06
*RES
1 *615:Z *618:A1 26.3571 
*END

*D_NET *250 0.000394747
*CONN
*I *618:A2 I *D NOR3_X1
*I *616:Z O *D XOR2_X1
*CAP
1 *618:A2 6.14434e-05
2 *616:Z 6.14434e-05
3 *618:A2 *475:A1 0
4 *618:A2 *616:B 2.32054e-05
5 *618:A2 *617:B 0
6 *618:A2 *618:A3 7.19036e-06
7 *618:A2 *350:40 0.000133405
8 *618:A2 *351:23 0
9 *618:A1 *618:A2 0.000107411
10 *117:47 *618:A2 6.48216e-07
*RES
1 *616:Z *618:A2 31.8571 
*END

*D_NET *251 0.000301911
*CONN
*I *618:A3 I *D NOR3_X1
*I *617:Z O *D XOR2_X1
*CAP
1 *618:A3 7.65878e-05
2 *617:Z 7.65878e-05
3 *618:A3 *615:B 0
4 *618:A3 *617:B 0.000121739
5 *618:A3 *350:30 0
6 *618:A3 *350:40 1.98056e-05
7 *618:A2 *618:A3 7.19036e-06
*RES
1 *617:Z *618:A3 30.6071 
*END

*D_NET *252 0.000924069
*CONN
*I *621:C2 I *D AOI221_X1
*I *619:A4 I *D NOR4_X1
*I *618:ZN O *D NOR3_X1
*CAP
1 *621:C2 5.44717e-05
2 *619:A4 0
3 *618:ZN 0.000326245
4 *252:12 0.000380716
5 *621:C2 *385:A 1.43544e-05
6 *621:C2 *621:B1 1.18656e-05
7 *252:12 *613:B 0
8 *252:12 *615:B 0
9 *252:12 *350:30 9.53844e-06
10 *614:A1 *252:12 0
11 *619:A2 *621:C2 8.43215e-07
12 *619:A2 *252:12 2.07643e-05
13 *620:A2 *621:C2 6.07779e-06
14 *621:B2 *621:C2 2.38892e-05
15 *8:48 *621:C2 5.38515e-05
16 *117:47 *621:C2 0
17 *117:47 *252:12 2.14524e-05
18 *248:10 *252:12 0
*RES
1 *618:ZN *252:12 39.0714 
2 *252:12 *619:A4 5 
3 *252:12 *621:C2 22.7143 
*END

*D_NET *253 0.000107001
*CONN
*I *621:B1 I *D AOI221_X1
*I *619:ZN O *D NOR4_X1
*CAP
1 *621:B1 4.22955e-05
2 *619:ZN 4.22955e-05
3 *621:B1 *621:A 2.39679e-06
4 *621:B2 *621:B1 7.19036e-06
5 *621:C1 *621:B1 9.57492e-07
6 *621:C2 *621:B1 1.18656e-05
7 *117:47 *621:B1 0
*RES
1 *619:ZN *621:B1 14.6786 
*END

*D_NET *254 9.74141e-05
*CONN
*I *621:A I *D AOI221_X1
*I *620:ZN O *D AND2_X1
*CAP
1 *621:A 4.67918e-05
2 *620:ZN 4.67918e-05
3 *621:A *622:A 1.21774e-06
4 *621:B1 *621:A 2.39679e-06
5 *621:C1 *621:A 2.16072e-07
6 *622:B2 *621:A 0
7 *8:48 *621:A 0
*RES
1 *620:ZN *621:A 14.8929 
*END

*D_NET *255 0.000276763
*CONN
*I *622:A I *D OAI221_X1
*I *621:ZN O *D AOI221_X1
*CAP
1 *622:A 9.11824e-05
2 *621:ZN 9.11824e-05
3 *621:A *622:A 1.21774e-06
4 *622:C1 *622:A 8.16741e-05
5 *8:48 *622:A 1.07393e-05
6 *17:8 *622:A 0
7 *17:10 *622:A 7.66675e-07
*RES
1 *621:ZN *622:A 31.1071 
*END

*D_NET *256 0.00184715
*CONN
*I *624:A3 I *D OR3_X1
*I *623:ZN O *D OR3_X1
*CAP
1 *624:A3 0
2 *623:ZN 0.000261189
3 *256:14 0.00058252
4 *256:12 0.000843709
5 *256:12 *260:8 4.28458e-05
6 *256:14 *624:A1 1.21774e-06
7 *532:A1 *256:14 0
8 *537:B2 *256:14 0
9 *538:A *256:14 0
10 *548:C1 *256:12 5.90776e-05
11 *559:B1 *256:12 3.23844e-05
12 *559:B2 *256:12 1.0443e-05
13 *5:46 *256:14 0
14 *97:23 *256:12 0
15 *177:14 *256:12 1.37673e-05
16 *185:20 *256:12 0
*RES
1 *623:ZN *256:12 36.0357 
2 *256:12 *256:14 57.1072 
3 *256:14 *624:A3 5 
*END

*D_NET *257 0.00576334
*CONN
*I *625:A4 I *D NOR4_X1
*I *624:ZN O *D OR3_X1
*CAP
1 *625:A4 0.000123848
2 *624:ZN 0
3 *257:8 0.00241831
4 *257:6 0.00229446
5 *625:A4 *625:A3 2.75346e-06
6 *625:A4 *263:24 1.87637e-06
7 *257:8 *527:B2 0
8 *257:8 *570:B 0
9 *257:8 *574:A 0
10 *257:8 *583:A1 1.82284e-05
11 *257:8 *594:B1 0
12 *257:8 *594:B2 0
13 *257:8 *261:22 9.22998e-06
14 *257:8 *355:27 0
15 *513:A2 *257:8 0
16 *522:A2 *257:8 0
17 *595:A *257:8 4.89613e-05
18 *596:B *257:8 0
19 *5:46 *257:8 6.58215e-06
20 *5:52 *257:8 7.35309e-06
21 *6:55 *257:8 0
22 *6:70 *257:8 0
23 *8:13 *257:8 0.000380839
24 *8:17 *257:8 0.000395421
25 *8:34 *257:8 5.54784e-05
*RES
1 *624:ZN *257:6 10 
2 *257:6 *257:8 284.572 
3 *257:8 *625:A4 22.25 
*END

*D_NET *258 0.00680964
*CONN
*P result[0] O
*I *623:A3 I *D OR3_X1
*I *569:ZN O *D OAI21_X1
*CAP
1 result[0] 0.000964506
2 *623:A3 7.37276e-05
3 *569:ZN 0.000100844
4 *258:14 0.000973219
5 *258:12 0.00154285
6 *258:10 0.0017087
7 result[0] result[1] 0
8 result[0] *259:12 0.000530569
9 *623:A3 *448:A 1.39294e-06
10 *623:A3 *259:6 2.39679e-06
11 *623:A3 *259:10 7.00147e-05
12 *258:12 *384:A 0
13 *258:12 *259:10 0.000386484
14 *258:12 *259:12 0.000348166
15 *443:B1 *258:12 0
16 *550:A3 *258:10 0
17 *41:10 *623:A3 9.77674e-06
18 *90:12 *258:10 9.46688e-05
19 *90:12 *258:12 0
20 *91:8 *623:A3 0
21 *204:10 *258:10 2.32458e-06
*RES
1 *569:ZN *258:10 26.7857 
2 *258:10 *258:12 178.857 
3 *258:12 *258:14 0.928572 
4 *258:14 result[0] 122.143 
5 *258:10 *623:A3 23.6071 
*END

*D_NET *259 0.00671423
*CONN
*P result[1] O
*I *623:A2 I *D OR3_X1
*I *559:ZN O *D OAI21_X1
*CAP
1 result[1] 0.000127008
2 *623:A2 0
3 *559:ZN 4.49224e-05
4 *259:12 0.00226479
5 *259:10 0.00248
6 *259:6 0.000387141
7 result[1] result[2] 4.69301e-05
8 *259:6 *260:8 0
9 *259:10 *623:A1 7.19036e-06
10 *259:12 result[2] 0
11 result[0] result[1] 0
12 result[0] *259:12 0.000530569
13 *559:B1 *259:6 1.86268e-05
14 *623:A3 *259:6 2.39679e-06
15 *623:A3 *259:10 7.00147e-05
16 *91:8 *259:6 0
17 *91:8 *259:10 0
18 *258:12 *259:10 0.000386484
19 *258:12 *259:12 0.000348166
*RES
1 *559:ZN *259:6 10.25 
2 *259:6 *259:10 44.4643 
3 *259:10 *259:12 255.143 
4 *259:12 result[1] 25.4286 
5 *259:6 *623:A2 5 
*END

*D_NET *260 0.00736588
*CONN
*P result[2] O
*I *623:A1 I *D OR3_X1
*I *548:ZN O *D OAI211_X1
*CAP
1 result[2] 0.00245059
2 *623:A1 2.14408e-05
3 *548:ZN 0.000207466
4 *260:23 0.00246529
5 *260:8 0.000243611
6 result[2] result[3] 0.00140625
7 *623:A1 *450:B2 8.00908e-05
8 *260:8 result[3] 0
9 *260:23 *450:B2 9.46688e-05
10 result[1] result[2] 4.69301e-05
11 *541:A2 *260:8 0
12 *548:C1 *260:8 0.000127922
13 *41:10 *623:A1 8.11741e-05
14 *41:10 *260:23 9.04209e-05
15 *91:8 *623:A1 0
16 *256:12 *260:8 4.28458e-05
17 *259:6 *260:8 0
18 *259:10 *623:A1 7.19036e-06
19 *259:12 result[2] 0
*RES
1 *548:ZN *260:8 34.75 
2 *260:8 *623:A1 15.0714 
3 *260:8 *260:23 10 
4 *260:23 result[2] 306.75 
*END

*D_NET *261 0.00845479
*CONN
*P result[3] O
*I *624:A2 I *D OR3_X1
*I *538:ZN O *D OAI21_X1
*CAP
1 result[3] 0.00290631
2 *624:A2 0
3 *538:ZN 0
4 *261:22 0.000337716
5 *261:8 0.00301602
6 *261:4 0.000447428
7 result[3] *558:C1 2.25683e-05
8 result[2] result[3] 0.00140625
9 *448:B result[3] 0
10 *450:B1 result[3] 0
11 *464:B2 *261:22 0
12 *521:A2 *261:22 0
13 *528:B1 *261:22 0
14 *530:A2 *261:8 0
15 *530:A3 *261:8 9.62051e-07
16 *537:B2 *261:8 0
17 *538:B1 *261:8 2.75346e-06
18 *538:B1 *261:22 1.25189e-05
19 *538:B2 *261:8 2.80752e-05
20 *538:B2 *261:22 9.76549e-06
21 *540:A1 result[3] 1.28122e-06
22 *541:A1 result[3] 1.11435e-06
23 *541:A2 result[3] 5.97722e-05
24 *541:A3 result[3] 7.19036e-06
25 *92:8 result[3] 0
26 *97:23 result[3] 4.60791e-05
27 *97:23 *261:8 9.24754e-05
28 *104:12 *261:8 0
29 *116:80 *261:22 4.72773e-05
30 *257:8 *261:22 9.22998e-06
31 *260:8 result[3] 0
*RES
1 *538:ZN *261:4 5 
2 *261:4 *261:8 13.8571 
3 *261:8 result[3] 354.25 
4 *261:4 *261:22 47.1786 
5 *261:22 *624:A2 5 
*END

*D_NET *262 0.00767925
*CONN
*P result[4] O
*I *624:A1 I *D OR3_X1
*I *528:ZN O *D OAI221_X1
*CAP
1 result[4] 5.43498e-05
2 *624:A1 7.49455e-05
3 *528:ZN 0
4 *262:8 0.00327929
5 *262:6 0.00329989
6 result[4] result[5] 6.99464e-06
7 *262:8 *434:A 1.16091e-05
8 *262:8 *574:A 1.5496e-05
9 *476:A2 *262:8 0.000121274
10 *517:A1 *262:8 0
11 *528:A *262:8 3.6328e-05
12 *528:B1 *624:A1 9.36271e-05
13 *528:B1 *262:8 4.37715e-05
14 *586:A3 *262:8 2.53735e-05
15 *595:A *262:8 0
16 *595:B2 *262:8 0.000146147
17 *5:46 *624:A1 7.34533e-06
18 *71:27 *262:8 0.000116956
19 *106:14 *262:8 9.02271e-05
20 *114:27 *262:8 7.88496e-05
21 *116:61 *262:8 1.44489e-05
22 *220:12 *262:8 5.4236e-05
23 *244:12 *262:8 0.000106872
24 *256:14 *624:A1 1.21774e-06
*RES
1 *528:ZN *262:6 10 
2 *262:6 *262:8 382.964 
3 *262:8 result[4] 15.7679 
4 *262:6 *624:A1 19.25 
*END

*D_NET *263 0.00886352
*CONN
*P result[5] O
*I *625:A2 I *D NOR4_X1
*I *518:ZN O *D OAI21_X1
*CAP
1 result[5] 0.000714721
2 *625:A2 0
3 *518:ZN 0.000259573
4 *263:24 0.000720881
5 *263:20 2.68798e-05
6 *263:16 0.000572412
7 *263:14 0.000562601
8 *263:12 0.000654939
9 *263:10 0.000903604
10 result[5] result[7] 0.00080536
11 result[5] *265:14 4.43868e-06
12 *263:10 *507:C1 0.000355643
13 *263:12 *605:B2 0.000339488
14 *263:12 *607:A 0
15 *263:12 *607:B 3.52751e-05
16 *263:12 *264:10 0.00160537
17 *263:12 *265:10 3.63254e-05
18 *263:16 result[6] 0
19 *263:16 *264:10 0.000155088
20 *263:16 *264:14 0.000918661
21 *263:16 *265:14 1.61002e-06
22 *263:16 *266:8 6.32461e-06
23 *263:20 *625:A1 7.02876e-06
24 *263:20 *625:A3 4.97191e-06
25 *263:20 *264:27 7.18871e-07
26 *263:24 *625:A1 1.21774e-06
27 *263:24 *625:A3 2.75346e-06
28 result[4] result[5] 6.99464e-06
29 *507:B2 *263:10 1.51409e-05
30 *508:B1 *263:12 0
31 *587:B1 *263:12 0
32 *625:A4 *263:24 1.87637e-06
33 *71:27 *263:10 0
34 *71:27 *263:12 0
35 *71:35 *263:10 6.32461e-06
36 *108:17 *263:10 0
37 *114:14 *263:10 4.24402e-05
38 *149:14 *263:10 8.32313e-06
39 *149:14 *263:12 8.65359e-05
40 *215:10 *263:12 0
*RES
1 *518:ZN *263:10 46.625 
2 *263:10 *263:12 112.268 
3 *263:12 *263:14 1.25 
4 *263:14 *263:16 85.3572 
5 *263:16 *263:20 7.25 
6 *263:20 *263:24 5.75 
7 *263:24 result[5] 108.232 
8 *263:20 *625:A2 5 
*END

*D_NET *264 0.00855128
*CONN
*P result[6] O
*I *625:A1 I *D NOR4_X1
*I *508:ZN O *D OAI21_X1
*CAP
1 result[6] 0.00096725
2 *625:A1 1.68851e-05
3 *508:ZN 3.57248e-05
4 *264:27 0.0010122
5 *264:16 6.18299e-05
6 *264:14 0.000200821
7 *264:10 0.000594403
8 *264:8 0.000429307
9 result[6] zero 0
10 result[6] *266:8 0
11 *264:10 *265:10 0.00229238
12 *264:14 *265:10 0.000155398
13 *264:14 *265:14 9.57831e-05
14 *595:C2 *264:8 0
15 *70:16 *264:8 0
16 *149:14 *264:8 1.21774e-06
17 *263:12 *264:10 0.00160537
18 *263:16 result[6] 0
19 *263:16 *264:10 0.000155088
20 *263:16 *264:14 0.000918661
21 *263:20 *625:A1 7.02876e-06
22 *263:20 *264:27 7.18871e-07
23 *263:24 *625:A1 1.21774e-06
*RES
1 *508:ZN *264:8 13.25 
2 *264:8 *264:10 120.107 
3 *264:10 *264:14 49.25 
4 *264:14 *264:16 5 
5 *264:16 *625:A1 6.75 
6 *264:16 *264:27 9.25 
7 *264:27 result[6] 109.589 
*END

*D_NET *265 0.00810263
*CONN
*P result[7] O
*I *625:A3 I *D NOR4_X1
*I *595:ZN O *D OAI221_X1
*CAP
1 result[7] 0.000424894
2 *625:A3 5.41917e-06
3 *595:ZN 3.86241e-05
4 *265:14 0.000533889
5 *265:10 0.0011084
6 *265:8 0.00104345
7 result[7] zero 0.00038151
8 result[7] *266:8 0.00108637
9 *265:14 *266:8 2.94455e-05
10 result[5] result[7] 0.00080536
11 result[5] *265:14 4.43868e-06
12 *587:B1 *265:8 0
13 *587:B1 *265:10 0
14 *587:B2 *265:10 0
15 *595:C2 *265:8 4.88571e-05
16 *625:A4 *625:A3 2.75346e-06
17 *263:12 *265:10 3.63254e-05
18 *263:16 *265:14 1.61002e-06
19 *263:20 *625:A3 4.97191e-06
20 *263:24 *625:A3 2.75346e-06
21 *264:10 *265:10 0.00229238
22 *264:14 *265:10 0.000155398
23 *264:14 *265:14 9.57831e-05
*RES
1 *595:ZN *265:8 14.75 
2 *265:8 *265:10 160.732 
3 *265:10 *265:14 15.5893 
4 *265:14 result[7] 107.554 
5 *265:14 *625:A3 10.75 
*END

*D_NET *266 0.00285849
*CONN
*P zero O
*I *625:ZN O *D NOR4_X1
*CAP
1 zero 0.000330607
2 *625:ZN 0
3 *266:10 0.000337152
4 *266:8 0.000346816
5 *266:6 0.000340271
6 result[6] zero 0
7 result[6] *266:8 0
8 result[7] zero 0.00038151
9 result[7] *266:8 0.00108637
10 *263:16 *266:8 6.32461e-06
11 *265:14 *266:8 2.94455e-05
*RES
1 *625:ZN *266:6 10 
2 *266:6 *266:8 58.2679 
3 *266:8 *266:10 0.75 
4 *266:10 zero 50.8929 
*END

*D_NET *267 0.00034676
*CONN
*I *419:B I *D XNOR2_X1
*I *626:Z O *D LOGIC1_X1
*CAP
1 *419:B 0.00017338
2 *626:Z 0.00017338
*RES
1 *626:Z *419:B 39.25 
*END

*D_NET *268 0.000479689
*CONN
*I *386:B I *D XNOR2_X1
*I *627:Z O *D LOGIC1_X1
*CAP
1 *386:B 0.000188288
2 *627:Z 0.000188288
3 *386:B *388:A1 0.000103113
4 *6:5 *386:B 0
5 *14:5 *386:B 0
*RES
1 *627:Z *386:B 43.6429 
*END

*D_NET *269 0.000370038
*CONN
*I *390:B I *D XNOR2_X1
*I *628:Z O *D LOGIC1_X1
*CAP
1 *390:B 0.000161907
2 *628:Z 0.000161907
3 *390:B *393:A1 0
4 *390:A *390:B 7.2978e-06
5 *13:9 *390:B 3.89254e-05
*RES
1 *628:Z *390:B 39.25 
*END

*D_NET *270 0.000332121
*CONN
*I *412:B I *D XNOR2_X1
*I *629:Z O *D LOGIC1_X1
*CAP
1 *412:B 8.33304e-05
2 *629:Z 8.33304e-05
3 *412:B *414:A1 8.11174e-05
4 *12:13 *412:B 6.65611e-05
5 *54:8 *412:B 1.77822e-05
*RES
1 *629:Z *412:B 35.1786 
*END

*D_NET *271 0.000611604
*CONN
*I *405:B I *D XNOR2_X1
*I *630:Z O *D LOGIC1_X1
*CAP
1 *405:B 0.000140262
2 *630:Z 0.000140262
3 *405:A *405:B 3.85541e-05
4 *408:A2 *405:B 0
5 *11:9 *405:B 0.00029013
6 *47:10 *405:B 2.39679e-06
*RES
1 *630:Z *405:B 40.9286 
*END

*D_NET *272 0.000481481
*CONN
*I *400:B I *D XNOR2_X1
*I *631:Z O *D LOGIC1_X1
*CAP
1 *400:B 0.000198261
2 *631:Z 0.000198261
3 *2:9 *400:B 0
4 *10:13 *400:B 8.49589e-05
5 *42:10 *400:B 0
*RES
1 *631:Z *400:B 45 
*END

*D_NET *273 0.000550768
*CONN
*I *395:B I *D XOR2_X1
*I *632:Z O *D LOGIC1_X1
*CAP
1 *395:B 0.00021234
2 *632:Z 0.00021234
3 *395:B *384:A 0
4 *396:A *395:B 2.40955e-06
5 *1:37 *395:B 8.14738e-05
6 *9:27 *395:B 0
7 *9:46 *395:B 8.62472e-06
8 *37:6 *395:B 3.35796e-05
*RES
1 *632:Z *395:B 47.0714 
*END

*D_NET *274 0.000307161
*CONN
*I *560:A I *D XOR2_X1
*I *633:Z O *D LOGIC1_X1
*CAP
1 *560:A 0.000153581
2 *633:Z 0.000153581
*RES
1 *633:Z *560:A 37.2143 
*END

*D_NET *275 0.000217544
*CONN
*I *607:A I *D XOR2_X1
*I *634:Z O *D LOGIC1_X1
*CAP
1 *607:A 0.000108772
2 *634:Z 0.000108772
3 *263:12 *607:A 0
*RES
1 *634:Z *607:A 32.4643 
*END

*D_NET *276 0.000483674
*CONN
*I *399:B2 I *D AOI221_X1
*I *635:Z O *D LOGIC1_X1
*CAP
1 *399:B2 0.000176622
2 *635:Z 0.000176622
3 *399:B2 *397:A1 6.68549e-05
4 *396:A *399:B2 0
5 *398:B *399:B2 2.06603e-05
6 *40:10 *399:B2 4.29135e-05
*RES
1 *635:Z *399:B2 42.6429 
*END

*D_NET *277 0.000478042
*CONN
*I *427:B I *D XOR2_X1
*I *636:Z O *D LOGIC1_X1
*CAP
1 *427:B 0.000236621
2 *636:Z 0.000236621
3 *427:B *426:B 3.83909e-06
4 *429:A *427:B 9.62051e-07
*RES
1 *636:Z *427:B 44.25 
*END

*D_NET *278 0.000387324
*CONN
*I *478:B I *D XNOR2_X1
*I *637:Z O *D LOGIC1_X1
*CAP
1 *478:B 0.00011677
2 *637:Z 0.00011677
3 *478:B *477:B 5.57564e-05
4 *480:A1 *478:B 1.65484e-05
5 *480:A3 *478:B 4.45767e-06
6 *481:A3 *478:B 6.50581e-06
7 *119:10 *478:B 1.55619e-05
8 *141:8 *478:B 2.84975e-05
9 *141:23 *478:B 2.64562e-05
*RES
1 *637:Z *478:B 38.5714 
*END

*D_NET *279 0.000748558
*CONN
*I *492:B I *D XNOR2_X1
*I *638:Z O *D LOGIC1_X1
*CAP
1 *492:B 0.000209387
2 *638:Z 0.000209387
3 *492:B *491:B 0.000321153
4 *492:B *493:A 0
5 *492:B *493:B 8.63111e-06
6 *494:A1 *492:B 0
7 *494:A2 *492:B 0
8 *568:B2 *492:B 0
9 *70:42 *492:B 0
10 *70:67 *492:B 0
*RES
1 *638:Z *492:B 47.9643 
*END

*D_NET *280 0.000467739
*CONN
*I *493:B I *D XNOR2_X1
*I *639:Z O *D LOGIC1_X1
*CAP
1 *493:B 0.000229554
2 *639:Z 0.000229554
3 *493:B *491:B 0
4 *492:B *493:B 8.63111e-06
5 *494:A1 *493:B 0
*RES
1 *639:Z *493:B 44.4286 
*END

*D_NET *281 0.0005588
*CONN
*I *498:B I *D XNOR2_X1
*I *640:Z O *D LOGIC1_X1
*CAP
1 *498:B 0.000192935
2 *640:Z 0.000192935
3 *498:B *496:B 0
4 *498:B *349:81 2.72171e-06
5 *498:B *350:115 6.29054e-05
6 *499:A3 *498:B 8.27554e-05
7 *71:12 *498:B 0
8 *141:8 *498:B 2.45464e-05
*RES
1 *640:Z *498:B 44.4286 
*END

*D_NET *282 0.000891888
*CONN
*I *483:B I *D XOR2_X1
*I *641:Z O *D LOGIC1_X1
*CAP
1 *483:B 0.000117144
2 *641:Z 0.000117144
3 *483:B *482:B 0.0003033
4 *483:B *483:A 3.02351e-05
5 *483:B *493:A 0.000145858
6 *494:A3 *483:B 8.22158e-05
7 *70:42 *483:B 5.58941e-05
8 *117:10 *483:B 3.79486e-05
9 *136:12 *483:B 2.14861e-06
*RES
1 *641:Z *483:B 44.5357 
*END

*D_NET *283 0.000378444
*CONN
*I *484:B I *D XOR2_X1
*I *642:Z O *D LOGIC1_X1
*CAP
1 *484:B 9.86555e-05
2 *642:Z 9.86555e-05
3 *484:B *491:A 5.14369e-05
4 *484:B *351:99 8.11762e-05
5 *71:53 *484:B 4.85196e-05
*RES
1 *642:Z *484:B 35.1786 
*END

*D_NET *284 0.000633903
*CONN
*I *487:B I *D XOR2_X1
*I *643:Z O *D LOGIC1_X1
*CAP
1 *487:B 0.0001368
2 *643:Z 0.0001368
3 *487:B *488:B 6.59228e-05
4 *487:B *349:85 0
5 *487:B *350:111 1.37673e-05
6 *490:A1 *487:B 2.54802e-05
7 *490:A2 *487:B 3.01743e-06
8 *490:A3 *487:B 1.21774e-06
9 *132:8 *487:B 0.000250896
*RES
1 *643:Z *487:B 42.8929 
*END

*D_NET *285 0.000497882
*CONN
*I *489:B I *D XOR2_X1
*I *644:Z O *D LOGIC1_X1
*CAP
1 *489:B 0.000175848
2 *644:Z 0.000175848
3 *489:B *487:A 1.83114e-05
4 *489:B *488:B 5.89515e-05
5 *489:B *350:111 4.93896e-05
6 *489:B *351:71 2.23871e-06
7 *490:A3 *489:B 1.72943e-05
*RES
1 *644:Z *489:B 43.0714 
*END

*D_NET *286 0.000725973
*CONN
*I *601:B I *D XNOR2_X1
*I *645:Z O *D LOGIC1_X1
*CAP
1 *601:B 0.000195951
2 *645:Z 0.000195951
3 *601:B *601:A 1.87418e-05
4 *17:10 *601:B 0
5 *238:10 *601:B 0.00031533
*RES
1 *645:Z *601:B 47.0357 
*END

*D_NET *287 0.000633699
*CONN
*I *612:B I *D XOR2_X1
*I *646:Z O *D LOGIC1_X1
*CAP
1 *612:B 0.000130941
2 *646:Z 0.000130941
3 *612:B *611:B 0.000288301
4 *612:B *613:B 0
5 *612:B *349:28 0
6 *612:B *349:41 0
7 *612:B *350:13 6.89712e-05
8 *612:B *350:26 1.45454e-05
*RES
1 *646:Z *612:B 40.6072 
*END

*D_NET *288 0.000520628
*CONN
*I *613:B I *D XOR2_X1
*I *647:Z O *D LOGIC1_X1
*CAP
1 *613:B 0.000117906
2 *647:Z 0.000117906
3 *613:B *349:28 1.72405e-05
4 *613:B *349:41 0.000262562
5 *612:B *613:B 0
6 *117:47 *613:B 5.01336e-06
7 *252:12 *613:B 0
*RES
1 *647:Z *613:B 37.25 
*END

*D_NET *289 0.000476274
*CONN
*I *615:B I *D XOR2_X1
*I *648:Z O *D LOGIC1_X1
*CAP
1 *615:B 0.000204871
2 *648:Z 0.000204871
3 *615:B *616:B 1.66076e-05
4 *615:B *350:30 4.99246e-05
5 *618:A3 *615:B 0
6 *252:12 *615:B 0
*RES
1 *648:Z *615:B 43.3214 
*END

*D_NET *290 0.000721113
*CONN
*I *617:B I *D XOR2_X1
*I *649:Z O *D LOGIC1_X1
*CAP
1 *617:B 0.000160712
2 *649:Z 0.000160712
3 *617:B *475:A1 0.000134192
4 *617:B *475:A2 4.80378e-06
5 *617:B *616:B 9.66611e-07
6 *617:B *350:40 0
7 *617:B *350:53 4.27786e-05
8 *618:A2 *617:B 0
9 *618:A3 *617:B 0.000121739
10 *117:8 *617:B 0
11 *117:10 *617:B 9.52084e-05
12 *117:47 *617:B 0
*RES
1 *649:Z *617:B 43.75 
*END

*D_NET *292 0.000364553
*CONN
*I *468:B I *D XNOR2_X1
*I *655:Z O *D LOGIC0_X1
*CAP
1 *468:B 0.000182276
2 *655:Z 0.000182276
3 *7:17 *468:B 0
*RES
1 *655:Z *468:B 40 
*END

*D_NET *293 0.000356367
*CONN
*I *431:B I *D XNOR2_X1
*I *656:Z O *D LOGIC0_X1
*CAP
1 *431:B 0.000175022
2 *656:Z 0.000175022
3 *434:B *431:B 0
4 *73:10 *431:B 6.32202e-06
*RES
1 *656:Z *431:B 39.3214 
*END

*D_NET *294 0.000475297
*CONN
*I *436:B I *D XNOR2_X1
*I *657:Z O *D LOGIC0_X1
*CAP
1 *436:B 0.000182198
2 *657:Z 0.000182198
3 *391:A1 *436:B 0
4 *417:C2 *436:B 8.33759e-07
5 *436:A *436:B 1.92742e-05
6 *519:A *436:B 1.03664e-05
7 *13:41 *436:B 1.83315e-05
8 *58:10 *436:B 6.20961e-05
*RES
1 *657:Z *436:B 43.5 
*END

*D_NET *295 0.000633453
*CONN
*I *457:B I *D XNOR2_X1
*I *658:Z O *D LOGIC0_X1
*CAP
1 *457:B 0.000111694
2 *658:Z 0.000111694
3 *457:B *414:A1 6.44376e-06
4 *414:A2 *457:B 1.18559e-05
5 *416:A *457:B 2.57883e-05
6 *416:C1 *457:B 4.76429e-07
7 *416:C2 *457:B 0
8 *458:A1 *457:B 0
9 *4:30 *457:B 0.000199989
10 *4:36 *457:B 0.000147729
11 *99:8 *457:B 1.77822e-05
*RES
1 *658:Z *457:B 39.3214 
*END

*D_NET *296 0.000630452
*CONN
*I *451:B I *D XNOR2_X1
*I *659:Z O *D LOGIC0_X1
*CAP
1 *451:B 0.000152111
2 *659:Z 0.000152111
3 *451:B *408:A1 0.00018459
4 *451:B *453:A1 3.88252e-05
5 *456:A *451:B 8.50486e-06
6 *456:B1 *451:B 0
7 *11:19 *451:B 7.76427e-05
8 *11:28 *451:B 7.72537e-06
9 *53:8 *451:B 6.54588e-06
10 *93:8 *451:B 2.39679e-06
11 *94:6 *451:B 0
*RES
1 *659:Z *451:B 43.25 
*END

*D_NET *297 0.000396196
*CONN
*I *445:B I *D XOR2_X1
*I *660:Z O *D LOGIC0_X1
*CAP
1 *445:B 0.000130836
2 *660:Z 0.000130836
3 *403:B *445:B 0
4 *404:C1 *445:B 0
5 *549:B *445:B 0
6 *559:B1 *445:B 7.11905e-07
7 *10:17 *445:B 0.000133812
8 *43:8 *445:B 0
9 *45:10 *445:B 0
*RES
1 *660:Z *445:B 37.8929 
*END

*D_NET *298 0.00056827
*CONN
*I *440:B I *D XOR2_X1
*I *661:Z O *D LOGIC0_X1
*CAP
1 *440:B 0.000124523
2 *661:Z 0.000124523
3 *440:B *383:A 0
4 *440:B *562:A 8.21942e-06
5 *441:A1 *440:B 0.00012041
6 *441:A2 *440:B 8.22137e-05
7 *443:B1 *440:B 0
8 *444:A *440:B 4.24673e-07
9 *82:8 *440:B 0.000107955
10 *84:21 *440:B 0
*RES
1 *661:Z *440:B 38.5714 
*END

*D_NET *299 0.000420156
*CONN
*I *562:A I *D XNOR2_X1
*I *662:Z O *D LOGIC0_X1
*CAP
1 *562:A 0.000173774
2 *662:Z 0.000173774
3 *440:B *562:A 8.21942e-06
4 *441:A1 *562:A 1.22474e-05
5 *444:A *562:A 1.57172e-05
6 *561:B *562:A 0
7 *1:37 *562:A 0
8 *84:10 *562:A 3.64244e-05
9 *86:10 *562:A 0
*RES
1 *662:Z *562:A 39.3572 
*END

*D_NET *300 0.000568658
*CONN
*I *507:C1 I *D AOI221_X1
*I *663:Z O *D LOGIC0_X1
*CAP
1 *507:C1 0.000106507
2 *663:Z 0.000106507
3 *71:27 *507:C1 0
4 *263:10 *507:C1 0.000355643
*RES
1 *663:Z *507:C1 38.5714 
*END

*D_NET *301 0.000755778
*CONN
*I *515:C2 I *D AOI222_X1
*I *664:Z O *D LOGIC0_X1
*CAP
1 *515:C2 4.98146e-05
2 *664:Z 4.98146e-05
3 *515:C2 *356:30 0.000328075
4 *7:68 *515:C2 0.000310834
5 *7:74 *515:C2 1.72405e-05
*RES
1 *664:Z *515:C2 37.2143 
*END

*D_NET *302 0.000452201
*CONN
*I *527:B2 I *D AOI221_X1
*I *665:Z O *D LOGIC0_X1
*CAP
1 *527:B2 0.000145873
2 *665:Z 0.000145873
3 *527:B2 *527:B1 8.78249e-05
4 *522:A2 *527:B2 6.76378e-05
5 *525:A1 *527:B2 0
6 *5:52 *527:B2 2.16072e-07
7 *5:62 *527:B2 4.77617e-06
8 *257:8 *527:B2 0
*RES
1 *665:Z *527:B2 38.6429 
*END

*D_NET *303 0.000499731
*CONN
*I *535:B2 I *D AOI222_X1
*I *666:Z O *D LOGIC0_X1
*CAP
1 *535:B2 0.000100218
2 *666:Z 0.000100218
3 *535:B2 *527:B1 2.75346e-06
4 *535:B2 *354:12 7.14198e-05
5 *535:B2 *357:66 0.00018068
6 *557:C1 *535:B2 2.33934e-05
7 *123:29 *535:B2 2.10484e-05
*RES
1 *666:Z *535:B2 27.25 
*END

*D_NET *304 0.0005387
*CONN
*I *547:B2 I *D AOI221_X1
*I *667:Z O *D LOGIC0_X1
*CAP
1 *547:B2 0.000105709
2 *667:Z 0.000105709
3 *547:A *547:B2 0.000327283
4 *3:37 *547:B2 0
5 *11:30 *547:B2 0
*RES
1 *667:Z *547:B2 37.2143 
*END

*D_NET *305 0.000485225
*CONN
*I *558:C1 I *D AOI221_X1
*I *668:Z O *D LOGIC0_X1
*CAP
1 *558:C1 0.000185896
2 *668:Z 0.000185896
3 *558:C1 *354:52 6.0887e-06
4 result[3] *558:C1 2.25683e-05
5 *541:A2 *558:C1 0
6 *559:A *558:C1 6.98328e-05
7 *559:B1 *558:C1 0
8 *91:27 *558:C1 1.26998e-05
9 *92:8 *558:C1 2.24327e-06
*RES
1 *668:Z *558:C1 42.0714 
*END

*D_NET *306 0.000330848
*CONN
*I *568:C1 I *D AOI221_X1
*I *669:Z O *D LOGIC0_X1
*CAP
1 *568:C1 0.000165424
2 *669:Z 0.000165424
3 *554:A1 *568:C1 0
4 *1:70 *568:C1 0
*RES
1 *669:Z *568:C1 38.5714 
*END

*D_NET *307 0.000319005
*CONN
*I *566:A1 I *D AOI222_X1
*I *670:Z O *D LOGIC0_X1
*CAP
1 *566:A1 0.000159502
2 *670:Z 0.000159502
*RES
1 *670:Z *566:A1 37.8929 
*END

*D_NET *308 0.0002057
*CONN
*I *597:A I *D XOR2_X1
*I *671:Z O *D LOGIC0_X1
*CAP
1 *597:A 0.00010285
2 *671:Z 0.00010285
*RES
1 *671:Z *597:A 31.7857 
*END

*D_NET *309 0.00056042
*CONN
*I *384:A I *D INV_X1
*I *672:Z O *D LOGIC0_X1
*CAP
1 *384:A 0.000279891
2 *672:Z 0.000279891
3 *384:A *383:A 0
4 *384:A *561:A 0
5 *395:B *384:A 0
6 *443:A *384:A 0
7 *443:B1 *384:A 6.38328e-07
8 *443:B2 *384:A 0
9 *85:6 *384:A 0
10 *258:12 *384:A 0
*RES
1 *672:Z *384:A 47.8929 
*END

*D_NET *310 0.000478124
*CONN
*I *426:B I *D XOR2_X1
*I *673:Z O *D LOGIC0_X1
*CAP
1 *426:B 0.000229585
2 *673:Z 0.000229585
3 *426:B *425:B 1.51154e-05
4 *427:B *426:B 3.83909e-06
5 *70:14 *426:B 0
6 *70:31 *426:B 0
*RES
1 *673:Z *426:B 43.8572 
*END

*D_NET *311 0.000521689
*CONN
*I *425:B I *D XOR2_X1
*I *674:Z O *D LOGIC0_X1
*CAP
1 *425:B 0.000144036
2 *674:Z 0.000144036
3 *425:B *425:A 3.30471e-05
4 *426:B *425:B 1.51154e-05
5 *428:A1 *425:B 6.71316e-06
6 *428:A3 *425:B 2.87703e-06
7 *70:31 *425:B 0.000116485
8 *70:42 *425:B 5.93802e-05
*RES
1 *674:Z *425:B 41.1429 
*END

*D_NET *312 0.000863208
*CONN
*I *477:B I *D XNOR2_X1
*I *675:Z O *D LOGIC0_X1
*CAP
1 *477:B 0.000176925
2 *675:Z 0.000176925
3 *477:B *477:A 7.72537e-06
4 *477:B *478:A 7.53491e-05
5 *477:B *479:B 9.62051e-07
6 *477:B *486:A3 2.18524e-05
7 *477:B *350:115 1.66988e-05
8 *477:B *350:123 7.19036e-06
9 *477:B *356:14 0
10 *478:B *477:B 5.57564e-05
11 *480:A3 *477:B 8.14262e-05
12 *119:10 *477:B 1.43276e-05
13 *122:8 *477:B 0.000160182
14 *122:49 *477:B 6.78878e-05
*RES
1 *675:Z *477:B 48.5 
*END

*D_NET *313 0.000372905
*CONN
*I *479:B I *D XNOR2_X1
*I *676:Z O *D LOGIC0_X1
*CAP
1 *479:B 0.000184773
2 *676:Z 0.000184773
3 *479:B *486:A3 0
4 *477:B *479:B 9.62051e-07
5 *122:8 *479:B 0
6 *122:12 *479:B 2.39679e-06
7 *122:49 *479:B 0
*RES
1 *676:Z *479:B 40.1072 
*END

*D_NET *314 0.000652435
*CONN
*I *491:B I *D XNOR2_X1
*I *677:Z O *D LOGIC0_X1
*CAP
1 *491:B 0.000165641
2 *677:Z 0.000165641
3 *492:B *491:B 0.000321153
4 *493:B *491:B 0
5 *568:B2 *491:B 0
6 *70:42 *491:B 0
*RES
1 *677:Z *491:B 43.5 
*END

*D_NET *315 0.000505543
*CONN
*I *496:B I *D XNOR2_X1
*I *678:Z O *D LOGIC0_X1
*CAP
1 *496:B 0.000161996
2 *678:Z 0.000161996
3 *498:B *496:B 0
4 *499:A1 *496:B 2.64615e-05
5 *499:A2 *496:B 9.05228e-06
6 *499:A3 *496:B 4.64381e-06
7 *591:A *496:B 0
8 *116:42 *496:B 4.33797e-05
9 *123:72 *496:B 9.66611e-07
10 *141:8 *496:B 9.70469e-05
*RES
1 *678:Z *496:B 43.5 
*END

*D_NET *316 0.000591851
*CONN
*I *497:B I *D XNOR2_X1
*I *679:Z O *D LOGIC0_X1
*CAP
1 *497:B 0.00016713
2 *679:Z 0.00016713
3 *497:B *496:A 0
4 *497:B *497:A 8.52419e-06
5 *588:A1 *497:B 0
6 *1:92 *497:B 0.000157953
7 *70:16 *497:B 0
8 *116:23 *497:B 1.70715e-05
9 *116:42 *497:B 7.40411e-05
*RES
1 *679:Z *497:B 46.2143 
*END

*D_NET *317 0.000876901
*CONN
*I *482:B I *D XOR2_X1
*I *680:Z O *D LOGIC0_X1
*CAP
1 *482:B 0.000104005
2 *680:Z 0.000104005
3 *483:B *482:B 0.0003033
4 *70:42 *482:B 1.20697e-05
5 *117:10 *482:B 0.000353522
6 *136:12 *482:B 0
*RES
1 *680:Z *482:B 42.8214 
*END

*D_NET *318 0.000409837
*CONN
*I *594:B2 I *D AOI21_X1
*I *681:Z O *D LOGIC0_X1
*CAP
1 *594:B2 0.000172115
2 *681:Z 0.000172115
3 *594:B2 *583:A1 4.33384e-05
4 *588:A1 *594:B2 2.22688e-05
5 *8:70 *594:B2 0
6 *71:12 *594:B2 0
7 *257:8 *594:B2 0
*RES
1 *681:Z *594:B2 39.75 
*END

*D_NET *319 0.000616322
*CONN
*I *592:B2 I *D AOI22_X1
*I *682:Z O *D LOGIC0_X1
*CAP
1 *592:B2 0.000156379
2 *682:Z 0.000156379
3 *592:B2 *592:B1 4.97191e-06
4 *592:B2 *356:14 7.94286e-06
5 *590:A2 *592:B2 8.34049e-06
6 *591:B *592:B2 4.81344e-06
7 *591:C1 *592:B2 8.23024e-05
8 *591:C2 *592:B2 3.68288e-06
9 *593:A *592:B2 2.64848e-06
10 *593:B *592:B2 5.55566e-07
11 *16:28 *592:B2 6.73568e-05
12 *224:8 *592:B2 0.00012095
*RES
1 *682:Z *592:B2 43.0357 
*END

*D_NET *320 0.000518504
*CONN
*I *488:B I *D XOR2_X1
*I *683:Z O *D LOGIC0_X1
*CAP
1 *488:B 0.000174551
2 *683:Z 0.000174551
3 *488:B *349:51 1.40196e-05
4 *488:B *351:71 3.05082e-05
5 *487:B *488:B 6.59228e-05
6 *489:B *488:B 5.89515e-05
7 *490:A2 *488:B 0
*RES
1 *683:Z *488:B 43.8572 
*END

*D_NET *321 0.000454404
*CONN
*I *603:B I *D XNOR2_X1
*I *684:Z O *D LOGIC0_X1
*CAP
1 *603:B 0.000184553
2 *684:Z 0.000184553
3 *603:B *602:B 7.34989e-06
4 *603:B *351:13 4.2244e-05
5 *604:A2 *603:B 3.5704e-05
*RES
1 *684:Z *603:B 42.25 
*END

*D_NET *322 0.000490256
*CONN
*I *602:B I *D XNOR2_X1
*I *685:Z O *D LOGIC0_X1
*CAP
1 *602:B 0.000241453
2 *685:Z 0.000241453
3 *603:B *602:B 7.34989e-06
4 *604:A2 *602:B 0
5 *238:10 *602:B 0
*RES
1 *685:Z *602:B 45.5357 
*END

*D_NET *323 0.000750764
*CONN
*I *611:B I *D XOR2_X1
*I *686:Z O *D LOGIC0_X1
*CAP
1 *611:B 6.10914e-05
2 *686:Z 6.10914e-05
3 *611:B *474:A3 0.000232077
4 *611:B *349:41 0
5 *611:B *350:26 0.000108203
6 *612:B *611:B 0.000288301
*RES
1 *686:Z *611:B 37.8929 
*END

*D_NET *324 0.000564691
*CONN
*I *385:A I *D INV_X1
*I *687:Z O *D LOGIC0_X1
*CAP
1 *385:A 0.00013293
2 *687:Z 0.00013293
3 *619:A1 *385:A 0
4 *619:A3 *385:A 0
5 *621:B2 *385:A 8.93834e-05
6 *621:C2 *385:A 1.43544e-05
7 *1:92 *385:A 0.000120408
8 *8:48 *385:A 4.92317e-06
9 *117:47 *385:A 0
10 *238:10 *385:A 6.97608e-05
11 *248:10 *385:A 0
*RES
1 *687:Z *385:A 39.1429 
*END

*D_NET *325 0.00049967
*CONN
*I *616:B I *D XOR2_X1
*I *688:Z O *D LOGIC0_X1
*CAP
1 *616:B 0.000213739
2 *688:Z 0.000213739
3 *616:B *616:A 5.01331e-06
4 *616:B *350:30 0
5 *615:B *616:B 1.66076e-05
6 *617:B *616:B 9.66611e-07
7 *618:A1 *616:B 2.63981e-05
8 *618:A2 *616:B 2.32054e-05
*RES
1 *688:Z *616:B 44.7857 
*END

*D_NET *326 0.000394415
*CONN
*I *383:A I *D INV_X1
*I *689:Z O *D LOGIC0_X1
*CAP
1 *383:A 0.000176772
2 *689:Z 0.000176772
3 *384:A *383:A 0
4 *440:B *383:A 0
5 *441:A1 *383:A 0
6 *9:27 *383:A 1.14251e-05
7 *84:10 *383:A 2.94455e-05
*RES
1 *689:Z *383:A 39.0714 
*END

*D_NET *327 0.000533347
*CONN
*I *608:B I *D XNOR2_X1
*I *652:Z O *D LOGIC0_X1
*CAP
1 *608:B 0.00012944
2 *652:Z 0.00012944
3 *608:B *607:B 0.000124767
4 *608:B *608:A 5.1023e-06
5 *605:A *608:B 0.000105832
6 *609:B *608:B 0
7 *610:A *608:B 0
8 *610:B *608:B 3.8766e-05
*RES
1 *652:Z *608:B 41.25 
*END

*D_NET *328 0.000467353
*CONN
*I *597:B I *D XOR2_X1
*I *651:Z O *D LOGIC0_X1
*CAP
1 *597:B 0.000181788
2 *651:Z 0.000181788
3 *600:A *597:B 4.62359e-05
4 *600:B *597:B 5.75417e-05
*RES
1 *651:Z *597:B 43.3214 
*END

*D_NET *329 0.000370829
*CONN
*I *448:A I *D XOR2_X1
*I *690:Z O *D LOGIC0_X1
*CAP
1 *448:A 0.000121841
2 *690:Z 0.000121841
3 *450:B1 *448:A 0
4 *623:A3 *448:A 1.39294e-06
5 *41:10 *448:A 0
6 *90:12 *448:A 0.000125753
*RES
1 *690:Z *448:A 37.2143 
*END

*D_NET *330 0.000295119
*CONN
*I *453:A1 I *D NAND2_X1
*I *691:Z O *D LOGIC0_X1
*CAP
1 *453:A1 0.000128147
2 *691:Z 0.000128147
3 *451:B *453:A1 3.88252e-05
4 *53:8 *453:A1 0
*RES
1 *691:Z *453:A1 35.0357 
*END

*D_NET *331 0.000451678
*CONN
*I *460:A I *D XNOR2_X1
*I *692:Z O *D LOGIC0_X1
*CAP
1 *460:A 0.000174401
2 *692:Z 0.000174401
3 *461:A *460:A 1.64551e-05
4 *463:A *460:A 2.4792e-05
5 *463:B1 *460:A 1.92526e-05
6 *12:34 *460:A 0
7 *103:10 *460:A 4.23771e-05
*RES
1 *692:Z *460:A 31.1429 
*END

*D_NET *332 0.000288604
*CONN
*I *438:A1 I *D NAND2_X1
*I *693:Z O *D LOGIC0_X1
*CAP
1 *438:A1 0.000144302
2 *693:Z 0.000144302
3 *58:10 *438:A1 0
*RES
1 *693:Z *438:A1 36.5357 
*END

*D_NET *333 0.000522837
*CONN
*I *434:A I *D XNOR2_X1
*I *694:Z O *D LOGIC0_X1
*CAP
1 *434:A 0.000194276
2 *694:Z 0.000194276
3 *435:A *434:A 0
4 *517:A1 *434:A 3.35822e-05
5 *518:A *434:A 1.59582e-06
6 *6:36 *434:A 0
7 *7:58 *434:A 0
8 *14:21 *434:A 8.74982e-05
9 *71:35 *434:A 0
10 *262:8 *434:A 1.16091e-05
*RES
1 *694:Z *434:A 43.4643 
*END

*D_NET *334 0.000279968
*CONN
*I *471:A I *D XNOR2_X1
*I *695:Z O *D LOGIC0_X1
*CAP
1 *471:A 0.000139984
2 *695:Z 0.000139984
3 *472:B2 *471:A 0
4 *507:B2 *471:A 0
5 *580:A *471:A 0
6 *15:39 *471:A 0
7 *113:12 *471:A 0
*RES
1 *695:Z *471:A 23.6786 
*END

*D_NET *335 0.000580473
*CONN
*I *583:A1 I *D NAND2_X1
*I *696:Z O *D LOGIC0_X1
*CAP
1 *583:A1 0.00018288
2 *696:Z 0.00018288
3 *583:A2 *583:A1 1.21774e-06
4 *585:A *583:A1 9.52105e-05
5 *588:A1 *583:A1 0
6 *594:B2 *583:A1 4.33384e-05
7 *596:B *583:A1 5.67186e-05
8 *8:70 *583:A1 0
9 *70:16 *583:A1 0
10 *71:12 *583:A1 0
11 *257:8 *583:A1 1.82284e-05
*RES
1 *696:Z *583:A1 43.0714 
*END

*D_NET *336 0.000393766
*CONN
*I *598:A I *D XNOR2_X1
*I *697:Z O *D LOGIC0_X1
*CAP
1 *598:A 0.000187282
2 *697:Z 0.000187282
3 *598:A *598:B 1.85634e-05
4 *599:A *598:A 6.38328e-07
*RES
1 *697:Z *598:A 28.8572 
*END

*D_NET *337 0.000437484
*CONN
*I *397:A1 I *D AND2_X1
*I *698:Z O *D LOGIC0_X1
*CAP
1 *397:A1 0.000128365
2 *698:Z 0.000128365
3 *397:A1 *398:A 5.98617e-05
4 *397:A2 *397:A1 3.35822e-05
5 *399:B2 *397:A1 6.68549e-05
6 *9:46 *397:A1 1.34605e-05
7 *40:10 *397:A1 6.99525e-06
*RES
1 *698:Z *397:A1 40.4643 
*END

*D_NET *338 0.000494282
*CONN
*I *581:B I *D XNOR2_X1
*I *654:Z O *D LOGIC0_X1
*CAP
1 *581:B 0.000182256
2 *654:Z 0.000182256
3 *582:B *581:B 0
4 *584:B *581:B 5.32484e-06
5 *588:A1 *581:B 4.4596e-05
6 *596:A *581:B 0
7 *596:C2 *581:B 0
8 *8:70 *581:B 0
9 *16:28 *581:B 7.98485e-05
*RES
1 *654:Z *581:B 43.5 
*END

*D_NET *339 0.000664268
*CONN
*I *607:B I *D XOR2_X1
*I *653:Z O *D LOGIC0_X1
*CAP
1 *607:B 0.000159443
2 *653:Z 0.000159443
3 *607:B *605:B2 7.51832e-05
4 *607:B *608:A 0
5 *608:B *607:B 0.000124767
6 *609:B *607:B 0.000108728
7 *610:B *607:B 1.4293e-06
8 *263:12 *607:B 3.52751e-05
*RES
1 *653:Z *607:B 47.7857 
*END

*D_NET *340 0.000490544
*CONN
*I *402:A1 I *D NAND2_X1
*I *699:Z O *D LOGIC0_X1
*CAP
1 *402:A1 0.0001423
2 *699:Z 0.0001423
3 *402:A2 *402:A1 3.41146e-05
4 *404:A *402:A1 3.35796e-05
5 *2:9 *402:A1 0.000127798
6 *2:11 *402:A1 1.04526e-05
*RES
1 *699:Z *402:A1 41.8214 
*END

*D_NET *341 0.000721871
*CONN
*I *408:A1 I *D AND2_X1
*I *700:Z O *D LOGIC0_X1
*CAP
1 *408:A1 9.39723e-05
2 *700:Z 9.39723e-05
3 *408:A2 *408:A1 7.2187e-06
4 *411:A *408:A1 3.69646e-06
5 *411:B *408:A1 4.17423e-06
6 *451:B *408:A1 0.00018459
7 *3:9 *408:A1 8.33759e-07
8 *3:19 *408:A1 1.74934e-05
9 *11:19 *408:A1 0.00031592
*RES
1 *700:Z *408:A1 39.6429 
*END

*D_NET *342 0.000638536
*CONN
*I *414:A1 I *D NAND2_X1
*I *701:Z O *D LOGIC0_X1
*CAP
1 *414:A1 0.000194882
2 *701:Z 0.000194882
3 *412:B *414:A1 8.11174e-05
4 *414:A2 *414:A1 0
5 *416:C1 *414:A1 4.24381e-05
6 *457:B *414:A1 6.44376e-06
7 *4:30 *414:A1 1.21497e-05
8 *12:26 *414:A1 0
9 *54:8 *414:A1 0.000106624
10 *58:6 *414:A1 0
*RES
1 *701:Z *414:A1 45.5714 
*END

*D_NET *343 0.000510219
*CONN
*I *393:A1 I *D AND2_X1
*I *702:Z O *D LOGIC0_X1
*CAP
1 *393:A1 0.00020425
2 *702:Z 0.00020425
3 *393:A1 *394:A 0
4 *390:B *393:A1 0
5 *417:B *393:A1 1.11198e-05
6 *417:C2 *393:A1 0
7 *5:13 *393:A1 9.05985e-05
*RES
1 *702:Z *393:A1 44 
*END

*D_NET *344 0.000637598
*CONN
*I *388:A1 I *D NAND2_X1
*I *703:Z O *D LOGIC0_X1
*CAP
1 *388:A1 0.000129294
2 *703:Z 0.000129294
3 *386:B *388:A1 0.000103113
4 *388:A2 *388:A1 2.64346e-05
5 *14:9 *388:A1 0.000220051
6 *14:15 *388:A1 2.94113e-05
*RES
1 *703:Z *388:A1 42.6429 
*END

*D_NET *345 0.000541543
*CONN
*I *422:A I *D XOR2_X1
*I *704:Z O *D LOGIC0_X1
*CAP
1 *422:A 0.000120405
2 *704:Z 0.000120405
3 *422:A *575:B2 0.000300734
*RES
1 *704:Z *422:A 38.5714 
*END

*D_NET *346 0.000417752
*CONN
*I *573:A1 I *D NOR2_X1
*I *705:Z O *D LOGIC0_X1
*CAP
1 *573:A1 0.000127831
2 *705:Z 0.000127831
3 *573:A2 *573:A1 3.82997e-06
4 *578:A *573:A1 9.32271e-05
5 *606:B1 *573:A1 2.1651e-05
6 *606:B2 *573:A1 1.75939e-05
7 *209:10 *573:A1 2.57883e-05
*RES
1 *705:Z *573:A1 39.1072 
*END

*D_NET *347 0.0004631
*CONN
*I *608:A I *D XNOR2_X1
*I *706:Z O *D LOGIC0_X1
*CAP
1 *608:A 0.000228999
2 *706:Z 0.000228999
3 *607:B *608:A 0
4 *608:B *608:A 5.1023e-06
5 *609:B *608:A 0
6 *622:B1 *608:A 0
*RES
1 *706:Z *608:A 31.8572 
*END

*D_NET *348 0.000344888
*CONN
*I *570:B I *D XOR2_X1
*I *707:Z O *D LOGIC1_X1
*CAP
1 *570:B 0.000131265
2 *707:Z 0.000131265
3 *596:B *570:B 3.02372e-05
4 *596:C1 *570:B 2.46104e-05
5 *8:17 *570:B 3.09682e-06
6 *8:34 *570:B 2.44131e-05
7 *8:57 *570:B 0
8 *257:8 *570:B 0
*RES
1 *707:Z *570:B 37.2143 
*END

*D_NET *349 0.0102639
*CONN
*P opcode[0] I
*I *475:A2 I *D OR3_X1
*I *612:A I *D XOR2_X1
*I *474:A2 I *D NOR3_X1
*I *497:A I *D XNOR2_X1
*I *477:A I *D XNOR2_X1
*I *493:A I *D XNOR2_X1
*I *483:A I *D XOR2_X1
*I *488:A I *D XOR2_X1
*I *427:A I *D XOR2_X1
*I *616:A I *D XOR2_X1
*I *601:A I *D XNOR2_X1
*CAP
1 opcode[0] 0.000330395
2 *475:A2 0.000129857
3 *612:A 1.8552e-05
4 *474:A2 8.48604e-05
5 *497:A 7.70487e-05
6 *477:A 1.40644e-05
7 *493:A 0.00012447
8 *483:A 7.63754e-06
9 *488:A 0
10 *427:A 0.000242217
11 *616:A 0.00027124
12 *601:A 0.000118296
13 *349:85 0.000407585
14 *349:81 0.000472765
15 *349:75 0.000351721
16 *349:51 0.000278566
17 *349:49 0.00027122
18 *349:41 0.00041306
19 *349:28 0.000421003
20 *349:22 0.000253041
21 *349:9 0.00143102
22 *349:7 0.00117962
23 *349:5 0.00033694
24 *427:A *425:A 0
25 *427:A *426:A 0
26 *427:A *487:A 4.32319e-05
27 *427:A *351:71 8.94115e-06
28 *427:A *351:75 7.08615e-06
29 *474:A2 *474:A1 1.32348e-05
30 *474:A2 *474:A3 4.93921e-05
31 *475:A2 *475:A1 0.000168389
32 *475:A2 *350:40 0
33 *475:A2 *351:23 5.62265e-05
34 *493:A *491:A 1.68307e-05
35 *493:A *492:A 0
36 *497:A *496:A 0
37 *497:A *351:71 6.48216e-07
38 *601:A *602:A 0
39 *601:A *603:A 2.00206e-05
40 *601:A *350:9 7.40328e-06
41 *612:A *351:17 0
42 *616:A *350:30 0
43 *616:A *351:23 3.16109e-05
44 *349:5 *350:5 0.000383393
45 *349:9 *350:5 0.000704281
46 *349:9 *350:13 5.86754e-06
47 *349:22 *350:13 8.43207e-05
48 *349:28 *350:13 0
49 *349:28 *351:17 0
50 *349:41 *474:A3 0
51 *349:51 *351:71 1.95886e-06
52 *349:75 *351:71 2.36307e-05
53 *349:81 *498:A 4.88e-05
54 *349:81 *350:115 0.00043174
55 *349:81 *351:63 4.26902e-05
56 *349:85 *350:123 5.4464e-05
57 *428:A2 *427:A 4.38826e-05
58 *428:A3 *427:A 3.69443e-05
59 *477:B *477:A 7.72537e-06
60 *483:B *483:A 3.02351e-05
61 *483:B *493:A 0.000145858
62 *485:A2 *349:85 0
63 *485:A3 *349:85 0
64 *487:B *349:85 0
65 *488:B *349:51 1.40196e-05
66 *492:B *493:A 0
67 *494:A2 *493:A 1.10223e-05
68 *494:A3 *493:A 0
69 *497:B *497:A 8.52419e-06
70 *498:B *349:81 2.72171e-06
71 *601:B *601:A 1.87418e-05
72 *604:A1 *601:A 0
73 *604:A2 *601:A 0
74 *604:A3 *601:A 0
75 *611:B *349:41 0
76 *612:B *349:28 0
77 *612:B *349:41 0
78 *613:B *349:28 1.72405e-05
79 *613:B *349:41 0.000262562
80 *616:B *616:A 5.01331e-06
81 *617:B *475:A2 4.80378e-06
82 *993:A *349:85 7.72537e-06
83 *70:14 *427:A 1.43761e-05
84 *70:14 *349:51 0
85 *70:16 *497:A 0
86 *70:16 *349:51 0
87 *70:16 *349:75 0
88 *70:42 *483:A 4.37715e-05
89 *70:42 *493:A 0.00014161
90 *117:10 *483:A 3.01743e-06
91 *127:10 *349:85 4.79202e-06
92 *238:10 *601:A 0
*RES
1 opcode[0] *349:5 50.8929 
2 *349:5 *349:7 0.75 
3 *349:7 *349:9 162.089 
4 *349:9 *601:A 22.75 
5 *349:9 *349:22 24.25 
6 *349:22 *349:28 14.6071 
7 *349:28 *616:A 25.75 
8 *349:28 *349:41 29.6786 
9 *349:41 *349:49 24.8929 
10 *349:49 *349:51 4.25 
11 *349:51 *427:A 43.2143 
12 *349:51 *488:A 5 
13 *349:49 *349:75 10.25 
14 *349:75 *349:81 38.75 
15 *349:81 *349:85 34.25 
16 *349:85 *483:A 12.2857 
17 *349:85 *493:A 28.4643 
18 *349:81 *477:A 6.67857 
19 *349:75 *497:A 13.1786 
20 *349:41 *474:A2 14.75 
21 *349:22 *612:A 6.75 
22 *616:A *475:A2 37.7143 
*END

*D_NET *350 0.0103857
*CONN
*P opcode[1] I
*I *496:A I *D XNOR2_X1
*I *478:A I *D XNOR2_X1
*I *492:A I *D XNOR2_X1
*I *482:A I *D XOR2_X1
*I *603:A I *D XNOR2_X1
*I *474:A3 I *D NOR3_X1
*I *615:A I *D XOR2_X1
*I *487:A I *D XOR2_X1
*I *426:A I *D XOR2_X1
*I *475:A3 I *D OR3_X1
*I *611:A I *D XOR2_X1
*CAP
1 opcode[1] 0.00103144
2 *496:A 6.58511e-05
3 *478:A 2.11378e-05
4 *492:A 5.70934e-05
5 *482:A 0
6 *603:A 4.19438e-05
7 *474:A3 0.000157291
8 *615:A 0
9 *487:A 0.000364105
10 *426:A 4.76418e-05
11 *475:A3 0
12 *611:A 0
13 *350:123 0.000304701
14 *350:115 0.000401211
15 *350:111 0.000330761
16 *350:53 0.000404014
17 *350:40 0.000218917
18 *350:30 0.000290953
19 *350:26 0.000410402
20 *350:13 0.000250333
21 *350:9 0.000269636
22 *350:5 0.00106517
23 *474:A3 *351:48 0
24 *487:A *351:71 2.07643e-05
25 *487:A *351:75 4.9829e-06
26 *487:A *351:90 9.03578e-07
27 *603:A *602:A 0
28 *603:A *351:9 0
29 *350:5 *351:5 0.00155322
30 *350:9 *351:9 0
31 *350:13 *351:13 0
32 *350:13 *351:48 0
33 *350:26 *351:48 0
34 *350:40 *475:A1 2.52965e-06
35 *350:111 *351:71 0
36 *350:123 *479:A 0
37 *350:123 *491:A 0
38 *350:123 *356:8 0.000114327
39 *350:123 *356:14 4.15369e-06
40 *350:123 *357:10 7.90853e-06
41 *427:A *426:A 0
42 *427:A *487:A 4.32319e-05
43 *428:A2 *426:A 5.11118e-06
44 *474:A2 *474:A3 4.93921e-05
45 *475:A2 *350:40 0
46 *477:B *478:A 7.53491e-05
47 *477:B *350:115 1.66988e-05
48 *477:B *350:123 7.19036e-06
49 *485:A1 *350:123 5.55962e-06
50 *487:B *350:111 1.37673e-05
51 *489:B *487:A 1.83114e-05
52 *489:B *350:111 4.93896e-05
53 *493:A *492:A 0
54 *494:A2 *492:A 4.47286e-06
55 *497:A *496:A 0
56 *497:B *496:A 0
57 *498:B *350:115 6.29054e-05
58 *499:A1 *496:A 1.91498e-06
59 *499:A3 *496:A 0
60 *601:A *603:A 2.00206e-05
61 *601:A *350:9 7.40328e-06
62 *611:B *474:A3 0.000232077
63 *611:B *350:26 0.000108203
64 *612:B *350:13 6.89712e-05
65 *612:B *350:26 1.45454e-05
66 *614:A3 *350:30 0
67 *615:B *350:30 4.99246e-05
68 *616:A *350:30 0
69 *616:B *350:30 0
70 *617:B *350:40 0
71 *617:B *350:53 4.27786e-05
72 *618:A1 *350:40 4.43868e-06
73 *618:A2 *350:40 0.000133405
74 *618:A3 *350:30 0
75 *618:A3 *350:40 1.98056e-05
76 *993:A *350:123 3.09143e-06
77 *70:14 *426:A 1.32323e-05
78 *70:14 *487:A 8.12683e-05
79 *117:8 *350:40 3.65322e-06
80 *117:10 *350:53 4.76381e-05
81 *117:47 *350:40 9.8046e-06
82 *119:10 *478:A 5.46453e-05
83 *119:10 *350:123 2.52965e-06
84 *127:25 *350:123 0
85 *141:8 *478:A 0
86 *141:8 *350:115 0
87 *252:12 *350:30 9.53844e-06
88 *349:5 *350:5 0.000383393
89 *349:9 *350:5 0.000704281
90 *349:9 *350:13 5.86754e-06
91 *349:22 *350:13 8.43207e-05
92 *349:28 *350:13 0
93 *349:41 *474:A3 0
94 *349:81 *350:115 0.00043174
95 *349:85 *350:123 5.4464e-05
*RES
1 opcode[1] *350:5 211.375 
2 *350:5 *350:9 8.25 
3 *350:9 *350:13 31.0357 
4 *350:13 *611:A 10 
5 *350:13 *350:26 8.71429 
6 *350:26 *350:30 25.75 
7 *350:30 *350:40 23.2143 
8 *350:40 *475:A3 5 
9 *350:40 *350:53 27.4643 
10 *350:53 *426:A 10.25 
11 *350:53 *487:A 42.3572 
12 *350:30 *615:A 5 
13 *350:26 *474:A3 31.9643 
14 *350:9 *603:A 9.75 
15 *487:A *350:111 19.25 
16 *350:111 *350:115 29.6786 
17 *350:115 *350:123 35.4286 
18 *350:123 *482:A 5 
19 *350:123 *492:A 10.6786 
20 *350:115 *478:A 14.3214 
21 *350:111 *496:A 11.75 
*END

*D_NET *351 0.00981476
*CONN
*P opcode[2] I
*I *602:A I *D XNOR2_X1
*I *498:A I *D XNOR2_X1
*I *489:A I *D XOR2_X1
*I *491:A I *D XNOR2_X1
*I *479:A I *D XNOR2_X1
*I *484:A I *D XOR2_X1
*I *425:A I *D XOR2_X1
*I *474:A1 I *D NOR3_X1
*I *613:A I *D XOR2_X1
*I *475:A1 I *D OR3_X1
*I *617:A I *D XOR2_X1
*CAP
1 opcode[2] 0.00136553
2 *602:A 6.75282e-05
3 *498:A 2.37849e-05
4 *489:A 8.71307e-06
5 *491:A 0.000112158
6 *479:A 0.000172159
7 *484:A 0
8 *425:A 0.000119073
9 *474:A1 9.43146e-06
10 *613:A 0
11 *475:A1 3.96234e-05
12 *617:A 0
13 *351:99 0.000310538
14 *351:90 0.000260543
15 *351:75 0.000415096
16 *351:71 0.000242177
17 *351:63 0.000330235
18 *351:48 0.000372778
19 *351:23 0.000286349
20 *351:17 0.000325961
21 *351:13 0.000531836
22 *351:9 0.000380306
23 *351:5 0.00145437
24 *425:B *425:A 3.30471e-05
25 *427:A *425:A 0
26 *427:A *351:71 8.94115e-06
27 *427:A *351:75 7.08615e-06
28 *428:A1 *425:A 3.9388e-06
29 *428:A3 *425:A 2.14856e-06
30 *474:A2 *474:A1 1.32348e-05
31 *474:A3 *351:48 0
32 *475:A2 *475:A1 0.000168389
33 *475:A2 *351:23 5.62265e-05
34 *484:B *491:A 5.14369e-05
35 *484:B *351:99 8.11762e-05
36 *485:A1 *479:A 2.52965e-06
37 *485:A1 *491:A 0
38 *485:A1 *351:90 8.19658e-05
39 *485:A1 *351:99 8.14241e-05
40 *485:A3 *351:90 5.10087e-06
41 *487:A *351:71 2.07643e-05
42 *487:A *351:75 4.9829e-06
43 *487:A *351:90 9.03578e-07
44 *488:B *351:71 3.05082e-05
45 *489:B *351:71 2.23871e-06
46 *493:A *491:A 1.68307e-05
47 *494:A3 *491:A 8.0602e-06
48 *497:A *351:71 6.48216e-07
49 *601:A *602:A 0
50 *603:A *602:A 0
51 *603:A *351:9 0
52 *603:B *351:13 4.2244e-05
53 *604:A2 *602:A 1.00571e-05
54 *604:A2 *351:13 5.51703e-05
55 *612:A *351:17 0
56 *614:A2 *351:13 5.64879e-06
57 *614:A2 *351:17 3.35796e-05
58 *614:A2 *351:48 5.13505e-05
59 *614:A3 *351:17 1.11844e-05
60 *616:A *351:23 3.16109e-05
61 *617:B *475:A1 0.000134192
62 *618:A2 *475:A1 0
63 *618:A2 *351:23 0
64 *619:A2 *351:48 6.103e-05
65 *619:A2 *351:63 3.49085e-06
66 *71:8 *351:90 3.13512e-06
67 *71:53 *351:90 1.6247e-05
68 *71:53 *351:99 1.23077e-06
69 *117:10 *351:90 0
70 *127:25 *479:A 0.00017198
71 *127:25 *351:99 0
72 *349:28 *351:17 0
73 *349:51 *351:71 1.95886e-06
74 *349:75 *351:71 2.36307e-05
75 *349:81 *498:A 4.88e-05
76 *349:81 *351:63 4.26902e-05
77 *350:5 *351:5 0.00155322
78 *350:9 *351:9 0
79 *350:13 *351:13 0
80 *350:13 *351:48 0
81 *350:26 *351:48 0
82 *350:40 *475:A1 2.52965e-06
83 *350:111 *351:71 0
84 *350:123 *479:A 0
85 *350:123 *491:A 0
*RES
1 opcode[2] *351:5 207.304 
2 *351:5 *351:9 13.25 
3 *351:9 *351:13 33.0714 
4 *351:13 *351:17 13.75 
5 *351:17 *351:23 32.2857 
6 *351:23 *617:A 10 
7 *351:23 *475:A1 19.8214 
8 *351:17 *613:A 5 
9 *351:13 *351:48 28.0714 
10 *351:48 *474:A1 11.25 
11 *351:48 *351:63 15.5 
12 *351:63 *351:71 25.4286 
13 *351:71 *351:75 6.67857 
14 *351:75 *425:A 18.1071 
15 *351:75 *351:90 32.3929 
16 *351:90 *484:A 10 
17 *351:90 *351:99 5.67857 
18 *351:99 *479:A 31.25 
19 *351:99 *491:A 22.2143 
20 *351:71 *489:A 5.92857 
21 *351:63 *498:A 12.9643 
22 *351:9 *602:A 12.25 
*END

*D_NET *354 0.00284317
*CONN
*I *547:B1 I *D AOI221_X1
*I *558:C2 I *D AOI221_X1
*I *527:B1 I *D AOI221_X1
*I *535:B1 I *D AOI222_X1
*I *991:Z O *D BUF_X1
*CAP
1 *547:B1 0
2 *558:C2 0
3 *527:B1 0.000180141
4 *535:B1 0
5 *991:Z 0.000147001
6 *354:52 0.000331046
7 *354:42 0.000434551
8 *354:12 0.000222989
9 *354:8 0.000293355
10 *527:B1 *527:C2 9.82575e-06
11 *527:B1 *535:C1 0.000164428
12 *354:12 *535:C1 2.75346e-06
13 *354:42 *357:66 0.000129314
14 *354:52 *554:A2 2.22446e-05
15 *354:52 *357:66 7.22151e-05
16 *522:A2 *527:B1 4.43868e-06
17 *524:C1 *527:B1 1.87392e-05
18 *526:B *527:B1 0
19 *526:C1 *527:B1 0.000161524
20 *527:A *527:B1 1.54355e-05
21 *527:B2 *527:B1 8.78249e-05
22 *535:A1 *354:42 0.000100822
23 *535:B2 *527:B1 2.75346e-06
24 *535:B2 *354:12 7.14198e-05
25 *541:A2 *354:52 0
26 *547:A *354:42 2.75346e-06
27 *547:A *354:52 7.72792e-06
28 *547:C2 *354:52 1.96434e-05
29 *554:A1 *354:52 7.43825e-05
30 *555:A2 *354:52 0
31 *556:C2 *354:42 8.37466e-06
32 *556:C2 *354:52 4.38852e-05
33 *558:A *354:52 2.8284e-05
34 *558:B1 *354:52 7.0013e-06
35 *558:C1 *354:52 6.0887e-06
36 *5:62 *527:B1 0.000113537
37 *70:80 *354:8 0
38 *70:80 *354:42 0
39 *91:27 *354:52 2.16569e-06
40 *117:10 *354:52 0
41 *117:18 *354:52 0
42 *123:29 *354:8 2.13573e-06
43 *123:29 *354:12 2.92206e-05
44 *123:29 *354:42 5.25718e-06
45 *162:10 *527:B1 1.98936e-05
*RES
1 *991:Z *354:8 26.5357 
2 *354:8 *354:12 11.75 
3 *354:12 *535:B1 5 
4 *354:12 *527:B1 46.8572 
5 *354:8 *354:42 21.0357 
6 *354:42 *354:52 49.5714 
7 *354:52 *558:C2 5 
8 *354:42 *547:B1 5 
*END

*D_NET *355 0.00211956
*CONN
*I *507:C2 I *D AOI221_X1
*I *594:B1 I *D AOI21_X1
*I *515:C1 I *D AOI222_X1
*I *992:Z O *D BUF_X1
*CAP
1 *507:C2 7.8248e-05
2 *594:B1 0.000168044
3 *515:C1 0
4 *992:Z 0.000219777
5 *355:27 0.000532041
6 *355:16 0.000505525
7 *594:B1 *356:30 0
8 *355:16 *356:30 1.48912e-05
9 *505:A1 *355:16 0
10 *505:A1 *355:27 0
11 *507:A *507:C2 0.000165762
12 *507:A *594:B1 8.727e-07
13 *507:A *355:27 5.04693e-06
14 *512:A1 *355:27 2.52965e-06
15 *514:A *355:16 6.07963e-05
16 *514:B2 *355:16 0
17 *515:B2 *355:16 8.65427e-05
18 *515:B2 *355:27 1.21774e-06
19 *516:A2 *355:16 2.14667e-06
20 *517:A2 *355:27 0
21 *517:A3 *355:16 0
22 *6:55 *355:27 6.86795e-05
23 *7:68 *355:27 0
24 *7:74 *355:27 0
25 *15:39 *507:C2 0.000165762
26 *153:10 *355:16 3.78407e-05
27 *153:10 *355:27 3.83909e-06
28 *257:8 *594:B1 0
29 *257:8 *355:27 0
*RES
1 *992:Z *355:16 42.2143 
2 *355:16 *515:C1 5 
3 *355:16 *355:27 37.1429 
4 *355:27 *594:B1 27.8929 
5 *355:27 *507:C2 25.75 
*END

*D_NET *356 0.00378185
*CONN
*I *592:B1 I *D AOI22_X1
*I *505:B1 I *D AOI22_X1
*I *525:A2 I *D NAND2_X1
*I *535:C1 I *D AOI222_X1
*I *515:A2 I *D AOI222_X1
*I *993:Z O *D BUF_X2
*CAP
1 *592:B1 5.05674e-06
2 *505:B1 5.88066e-05
3 *525:A2 7.29201e-06
4 *535:C1 0.000166192
5 *515:A2 5.17015e-06
6 *993:Z 8.72223e-05
7 *356:43 0.000321471
8 *356:30 0.000431367
9 *356:22 0.000385057
10 *356:14 0.000306476
11 *356:8 0.000340601
12 *356:8 *357:10 1.57087e-05
13 *477:B *356:14 0
14 *502:B1 *505:B1 9.51676e-06
15 *503:B1 *356:30 1.87637e-06
16 *503:B2 *505:B1 9.36808e-05
17 *503:B2 *356:30 7.72537e-06
18 *504:A2 *356:30 0
19 *505:A1 *505:B1 1.68643e-06
20 *505:A1 *356:30 0
21 *505:B2 *505:B1 3.89079e-06
22 *505:B2 *356:22 1.3143e-06
23 *505:B2 *356:30 0
24 *506:A1 *356:30 9.99204e-05
25 *506:A3 *505:B1 4.36533e-06
26 *515:B1 *356:30 2.94435e-05
27 *515:B1 *356:43 0.000106624
28 *515:B2 *515:A2 7.19036e-06
29 *515:C2 *356:30 0.000328075
30 *516:A1 *535:C1 9.52324e-06
31 *516:A2 *356:30 0
32 *516:A2 *356:43 0
33 *524:C1 *535:C1 1.91667e-07
34 *525:A1 *525:A2 1.21774e-06
35 *525:A1 *535:C1 0
36 *525:A1 *356:43 0.000121031
37 *526:B *535:C1 0
38 *527:B1 *535:C1 0.000164428
39 *535:C2 *535:C1 6.267e-05
40 *591:A *356:14 9.04657e-05
41 *591:C1 *356:14 4.26319e-06
42 *591:C2 *505:B1 1.34851e-06
43 *591:C2 *356:22 1.19107e-06
44 *592:A1 *592:B1 2.52965e-06
45 *592:A1 *356:14 1.50903e-06
46 *592:A1 *356:22 4.12796e-06
47 *592:A1 *356:30 0
48 *592:B2 *592:B1 4.97191e-06
49 *592:B2 *356:14 7.94286e-06
50 *593:B *356:22 1.66988e-05
51 *594:B1 *356:30 0
52 *5:62 *525:A2 6.85774e-07
53 *5:62 *535:C1 1.59636e-05
54 *7:68 *356:30 1.2471e-05
55 *7:74 *356:30 3.42238e-05
56 *119:10 *356:14 4.21607e-06
57 *127:25 *356:8 1.46861e-05
58 *127:25 *356:14 4.84979e-05
59 *127:27 *356:14 0.000124506
60 *127:27 *356:30 0
61 *127:33 *505:B1 4.44127e-06
62 *127:33 *356:22 5.90057e-05
63 *153:10 *515:A2 7.19036e-06
64 *350:123 *356:8 0.000114327
65 *350:123 *356:14 4.15369e-06
66 *354:12 *535:C1 2.75346e-06
67 *355:16 *356:30 1.48912e-05
*RES
1 *993:Z *356:8 18.0357 
2 *356:8 *356:14 34.9286 
3 *356:14 *356:22 11.6786 
4 *356:22 *356:30 48.3929 
5 *356:30 *515:A2 10.75 
6 *356:30 *356:43 26.9643 
7 *356:43 *535:C1 38.6429 
8 *356:43 *525:A2 5.75 
9 *356:22 *505:B1 18.1071 
10 *356:14 *592:B1 5.75 
*END

*D_NET *357 0.00369486
*CONN
*I *527:C2 I *D AOI221_X1
*I *535:A2 I *D AOI222_X1
*I *554:A2 I *D AOI22_X1
*I *545:A2 I *D NAND2_X1
*I *566:A2 I *D AOI222_X1
*I *486:A3 I *D OR3_X1
*I *994:Z O *D BUF_X2
*CAP
1 *527:C2 0.000225361
2 *535:A2 0
3 *554:A2 1.61822e-05
4 *545:A2 9.79017e-06
5 *566:A2 7.15917e-05
6 *486:A3 0.000165355
7 *994:Z 0.000245981
8 *357:66 0.000406294
9 *357:49 0.000419197
10 *357:32 0.000263923
11 *357:21 0.000255019
12 *357:10 0.000562712
13 *477:B *486:A3 2.18524e-05
14 *479:B *486:A3 0
15 *486:A1 *486:A3 3.37286e-06
16 *486:A2 *486:A3 2.39679e-06
17 *501:A3 *486:A3 0
18 *524:B *527:C2 0
19 *524:C2 *527:C2 4.52397e-05
20 *526:A *527:C2 9.08971e-06
21 *526:C1 *527:C2 0.000131139
22 *527:A *527:C2 1.82068e-05
23 *527:B1 *527:C2 9.82575e-06
24 *527:C1 *527:C2 8.15769e-06
25 *528:A *527:C2 7.72537e-06
26 *535:A1 *527:C2 1.21774e-06
27 *535:A1 *357:66 2.89193e-05
28 *535:B2 *357:66 0.00018068
29 *545:A1 *545:A2 5.52959e-06
30 *545:A1 *566:A2 0
31 *547:C2 *357:49 3.00021e-06
32 *554:A1 *554:A2 2.39679e-06
33 *554:B2 *554:A2 1.60038e-06
34 *556:C2 *527:C2 6.71156e-06
35 *557:A *554:A2 4.50122e-06
36 *557:A *357:66 8.02296e-06
37 *557:C1 *357:66 2.23896e-05
38 *557:C2 *357:49 7.0209e-05
39 *566:B2 *545:A2 0
40 *566:B2 *566:A2 9.65581e-05
41 *122:12 *486:A3 0
42 *127:25 *357:10 3.03843e-05
43 *132:19 *357:10 2.37898e-05
44 *132:19 *357:21 5.12024e-06
45 *132:34 *357:21 8.07512e-06
46 *132:45 *357:21 1.9871e-06
47 *132:45 *357:32 3.69842e-06
48 *132:45 *357:49 2.40321e-05
49 *137:55 *527:C2 9.62051e-07
50 *141:23 *486:A3 7.15835e-06
51 *141:29 *486:A3 2.14856e-06
52 *142:8 *486:A3 0
53 *162:10 *527:C2 2.23415e-06
54 *194:16 *357:66 7.72537e-06
55 *350:123 *357:10 7.90853e-06
56 *354:42 *357:66 0.000129314
57 *354:52 *554:A2 2.22446e-05
58 *354:52 *357:66 7.22151e-05
59 *356:8 *357:10 1.57087e-05
*RES
1 *994:Z *357:10 39.2143 
2 *357:10 *486:A3 26.75 
3 *357:10 *357:21 15.1786 
4 *357:21 *566:A2 19.25 
5 *357:21 *357:32 3.64286 
6 *357:32 *545:A2 11.25 
7 *357:32 *357:49 31.4643 
8 *357:49 *554:A2 7.25 
9 *357:49 *357:66 30.1072 
10 *357:66 *535:A2 5 
11 *357:66 *527:C2 34.1429 
*END

*D_NET *358 0.000482786
*CONN
*I *598:B I *D XNOR2_X1
*I *995:Z O *D LOGIC0_X1
*CAP
1 *598:B 0.000181562
2 *995:Z 0.000181562
3 *598:A *598:B 1.85634e-05
4 *599:A *598:B 0
5 *599:B *598:B 7.84048e-06
6 *600:A *598:B 1.78845e-05
7 *600:B *598:B 7.53747e-05
8 *16:9 *598:B 0
9 *16:24 *598:B 0
*RES
1 *995:Z *598:B 43.5 
*END

*D_NET *359 0.000491817
*CONN
*I *561:A I *D XNOR2_X1
*I *996:Z O *D LOGIC0_X1
*CAP
1 *561:A 0.000209067
2 *996:Z 0.000209067
3 *384:A *561:A 0
4 *444:A *561:A 2.9779e-06
5 *561:B *561:A 5.8781e-05
6 *85:6 *561:A 1.19252e-05
7 *86:10 *561:A 0
*RES
1 *996:Z *561:A 32.4643 
*END

*D_NET *360 0.00046773
*CONN
*I *450:B2 I *D AOI21_X1
*I *997:Z O *D LOGIC0_X1
*CAP
1 *450:B2 9.37443e-05
2 *997:Z 9.37443e-05
3 *559:B1 *450:B2 5.054e-05
4 *623:A1 *450:B2 8.00908e-05
5 *41:10 *450:B2 5.49415e-05
6 *260:23 *450:B2 9.46688e-05
*RES
1 *997:Z *450:B2 36.5357 
*END

*D_NET *361 0.000446823
*CONN
*I *454:A I *D XNOR2_X1
*I *998:Z O *D LOGIC0_X1
*CAP
1 *454:A 0.000190088
2 *998:Z 0.000190088
3 *454:B *454:A 1.37673e-05
4 *455:B1 *454:A 2.52965e-06
5 *2:34 *454:A 4.79202e-06
6 *10:28 *454:A 4.79202e-06
7 *92:8 *454:A 0
8 *94:6 *454:A 5.50692e-06
9 *96:10 *454:A 3.52579e-05
*RES
1 *998:Z *454:A 30.8572 
*END

*D_NET *362 0.000377003
*CONN
*I *463:B2 I *D AOI21_X1
*I *999:Z O *D LOGIC0_X1
*CAP
1 *463:B2 0.000146184
2 *999:Z 0.000146184
3 *463:B1 *463:B2 7.72792e-06
4 *4:40 *463:B2 0
5 *105:12 *463:B2 7.69074e-05
*RES
1 *999:Z *463:B2 37.9643 
*END

*D_NET *363 0.000398546
*CONN
*I *439:A I *D XNOR2_X1
*I *1000:Z O *D LOGIC0_X1
*CAP
1 *439:A 0.000188505
2 *1000:Z 0.000188505
3 *439:B *439:A 1.92742e-05
4 *464:A *439:A 0
5 *464:B1 *439:A 0
6 *521:A1 *439:A 2.26268e-06
7 *81:12 *439:A 0
*RES
1 *1000:Z *439:A 29.2857 
*END

*D_NET *364 0.000308172
*CONN
*I *467:B2 I *D AOI21_X1
*I *1001:Z O *D LOGIC0_X1
*CAP
1 *467:B2 0.000117321
2 *1001:Z 0.000117321
3 *109:12 *467:B2 7.353e-05
*RES
1 *1001:Z *467:B2 36.5357 
*END

*D_NET *365 0.000450573
*CONN
*I *579:B2 I *D AOI21_X1
*I *1002:Z O *D LOGIC0_X1
*CAP
1 *579:B2 0.000178952
2 *1002:Z 0.000178952
3 *579:A *579:B2 8.59073e-06
4 *579:B1 *579:B2 6.0887e-06
5 *60:22 *579:B2 7.79901e-05
6 *210:10 *579:B2 0
*RES
1 *1002:Z *579:B2 43.1429 
*END

*D_NET *366 0.000377043
*CONN
*I *584:A I *D XNOR2_X1
*I *1003:Z O *D LOGIC0_X1
*CAP
1 *584:A 0.000165697
2 *1003:Z 0.000165697
3 *583:A2 *584:A 0
4 *584:B *584:A 7.72792e-06
5 *70:16 *584:A 3.79205e-05
*RES
1 *1003:Z *584:A 28.1786 
*END

*D_NET *367 0.000383862
*CONN
*I *398:A I *D XOR2_X1
*I *1004:Z O *D LOGIC0_X1
*CAP
1 *398:A 0.00015906
2 *1004:Z 0.00015906
3 *397:A1 *398:A 5.98617e-05
4 *9:46 *398:A 5.88122e-06
*RES
1 *1004:Z *398:A 39.6072 
*END

*D_NET *368 0.00032239
*CONN
*I *403:A I *D XNOR2_X1
*I *1005:Z O *D LOGIC0_X1
*CAP
1 *403:A 0.000161195
2 *1005:Z 0.000161195
3 *382:A *403:A 0
4 *402:A2 *403:A 0
5 *404:A *403:A 0
6 *404:C2 *403:A 0
7 *447:A *403:A 0
*RES
1 *1005:Z *403:A 35.7143 
*END

*D_NET *369 0.000290887
*CONN
*I *409:A I *D XNOR2_X1
*I *1006:Z O *D LOGIC0_X1
*CAP
1 *409:A 0.000145443
2 *1006:Z 0.000145443
3 *409:B *409:A 0
*RES
1 *1006:Z *409:A 24.6071 
*END

*D_NET *370 0.000333718
*CONN
*I *415:A I *D XNOR2_X1
*I *1007:Z O *D LOGIC0_X1
*CAP
1 *415:A 0.000144687
2 *1007:Z 0.000144687
3 *413:B *415:A 7.30645e-06
4 *416:B1 *415:A 0
5 *416:B2 *415:A 0
6 *529:B *415:A 0
7 *4:30 *415:A 3.70376e-05
8 *53:8 *415:A 0
9 *168:8 *415:A 0
*RES
1 *1007:Z *415:A 25.2857 
*END

*D_NET *371 0.000655519
*CONN
*I *394:A I *D XOR2_X1
*I *1008:Z O *D LOGIC0_X1
*CAP
1 *394:A 0.000139706
2 *1008:Z 0.000139706
3 *391:A2 *394:A 1.64202e-05
4 *393:A1 *394:A 0
5 *417:A *394:A 6.70018e-06
6 *417:C1 *394:A 3.28718e-05
7 *417:C2 *394:A 8.14241e-05
8 *59:8 *394:A 0.000238691
*RES
1 *1008:Z *394:A 41.6429 
*END

*D_NET *372 0.000479409
*CONN
*I *389:A I *D XNOR2_X1
*I *1009:Z O *D LOGIC0_X1
*CAP
1 *389:A 0.000189935
2 *1009:Z 0.000189935
3 *388:A2 *389:A 0
4 *418:A *389:A 1.87418e-05
5 *418:C1 *389:A 0
6 *6:30 *389:A 2.17974e-05
7 *6:34 *389:A 3.82525e-05
8 *15:5 *389:A 0
9 *29:10 *389:A 7.2187e-06
10 *31:10 *389:A 1.35291e-05
*RES
1 *1009:Z *389:A 32.4643 
*END

*D_NET *373 0.000616103
*CONN
*I *575:B2 I *D AOI21_X1
*I *1010:Z O *D LOGIC0_X1
*CAP
1 *575:B2 0.000129301
2 *1010:Z 0.000129301
3 *422:A *575:B2 0.000300734
4 *422:B *575:B2 5.67661e-05
*RES
1 *1010:Z *575:B2 40.6072 
*END

*D_NET *374 0.000564794
*CONN
*I *574:A I *D XNOR2_X1
*I *1011:Z O *D LOGIC0_X1
*CAP
1 *574:A 0.000198241
2 *1011:Z 0.000198241
3 *574:A *605:B2 3.1623e-05
4 *573:A2 *574:A 1.6345e-05
5 *605:A *574:A 2.55787e-06
6 *610:A *574:A 0
7 *207:8 *574:A 4.13477e-05
8 *207:14 *574:A 4.25552e-05
9 *244:12 *574:A 1.83867e-05
10 *257:8 *574:A 0
11 *262:8 *574:A 1.5496e-05
*RES
1 *1011:Z *574:A 44.25 
*END

*D_NET *375 0.000684529
*CONN
*I *605:B2 I *D AOI21_X1
*I *1012:Z O *D LOGIC0_X1
*CAP
1 *605:B2 0.000103306
2 *1012:Z 0.000103306
3 *574:A *605:B2 3.1623e-05
4 *607:B *605:B2 7.51832e-05
5 *207:8 *605:B2 3.1623e-05
6 *263:12 *605:B2 0.000339488
*RES
1 *1012:Z *605:B2 41.1429 
*END
