*SPEF "ieee 1481-1999"
*DESIGN "uart_tx"
*DATE "15:36:31 Saturday March 07, 2026"
*VENDOR "The OpenROAD Project"
*PROGRAM "OpenROAD"
*VERSION "26Q1-850-gafd49e5292"
*DESIGN_FLOW "NAME_SCOPE LOCAL" "PIN_CAP NONE"
*DIVIDER /
*DELIMITER :
*BUS_DELIMITER []
*T_UNIT 1 NS
*C_UNIT 1 PF
*R_UNIT 1 OHM
*L_UNIT 1 HENRY

*NAME_MAP
*1 _0001_
*2 _0203_
*3 _0204_
*4 _0205_
*5 _0206_
*6 _0207_
*7 _0208_
*8 _0209_
*9 _0210_
*10 _0211_
*11 _0212_
*12 _0213_
*13 _0214_
*14 _0215_
*15 _0216_
*16 _0217_
*17 _0218_
*18 _0219_
*19 _0220_
*20 _0221_
*21 _0222_
*22 _0223_
*23 _0224_
*24 _0225_
*25 _0226_
*26 _0227_
*27 _0228_
*28 _0229_
*29 _0230_
*30 _0231_
*31 _0232_
*32 _0233_
*33 _0234_
*34 _0235_
*35 _0236_
*36 _0237_
*37 _0238_
*38 _0239_
*39 _0240_
*40 _0241_
*41 _0242_
*42 _0243_
*43 _0244_
*44 _0245_
*45 _0246_
*46 _0247_
*47 _0248_
*48 _0249_
*49 _0278_
*50 _0279_
*51 _0280_
*52 _0281_
*53 _0282_
*54 _0283_
*55 _0284_
*56 net
*57 _0286_
*58 _0287_
*59 _0288_
*60 _0289_
*61 net6
*62 _0291_
*63 _0292_
*64 _0293_
*65 _0294_
*66 _0295_
*67 _0296_
*68 _0297_
*69 _0298_
*70 _0299_
*71 _0300_
*72 _0301_
*73 _0302_
*74 _0303_
*75 _0304_
*76 _0305_
*77 _0306_
*78 _0307_
*79 _0308_
*80 _0309_
*81 _0310_
*82 _0311_
*83 _0312_
*84 _0313_
*85 _0314_
*86 _0315_
*87 _0316_
*88 _0317_
*89 _0318_
*90 _0319_
*91 _0320_
*92 _0321_
*93 _0322_
*94 _0323_
*95 net5
*96 _0325_
*97 net4
*98 net3
*99 net2
*100 _0329_
*101 _0330_
*102 _0331_
*103 _0332_
*104 _0333_
*105 _0334_
*106 _0335_
*107 _0336_
*108 _0337_
*109 _0338_
*110 _0339_
*111 _0340_
*112 _0341_
*113 _0342_
*114 _0343_
*115 _0344_
*116 _0345_
*117 _0346_
*118 _0347_
*119 _0348_
*120 _0349_
*121 _0350_
*122 _0351_
*123 _0352_
*124 _0353_
*125 _0354_
*126 _0355_
*127 _0356_
*128 _0357_
*129 _0358_
*130 _0359_
*131 _0360_
*132 _0361_
*133 _0362_
*134 _0363_
*135 _0364_
*136 _0365_
*137 _0366_
*138 _0367_
*139 _0368_
*140 _0369_
*141 _0370_
*142 _0371_
*143 _0372_
*144 _0373_
*145 _0374_
*146 _0375_
*147 _0376_
*148 _0377_
*149 _0378_
*150 _0379_
*151 _0380_
*152 _0381_
*153 _0382_
*154 _0383_
*155 _0384_
*156 _0385_
*157 _0386_
*158 _0387_
*159 _0388_
*160 _0389_
*161 _0390_
*162 _0391_
*163 _0392_
*164 _0393_
*165 _0394_
*166 _0395_
*167 _0396_
*168 _0397_
*169 _0398_
*170 _0399_
*171 _0400_
*172 _0401_
*173 _0402_
*174 _0403_
*175 _0404_
*176 _0405_
*177 _0406_
*178 _0407_
*179 _0408_
*180 _0409_
*181 _0410_
*182 _0411_
*183 _0412_
*184 _0413_
*185 _0414_
*186 _0415_
*187 _0416_
*188 _0417_
*189 _0418_
*190 _0419_
*191 _0420_
*192 _0421_
*193 _0422_
*194 _0423_
*195 _0424_
*196 _0425_
*197 _0426_
*198 _0427_
*199 _0428_
*200 _0429_
*201 _0430_
*202 _0431_
*203 _0432_
*204 net1
*206 _0435_
*207 _0436_
*208 _0437_
*209 _0438_
*210 _0439_
*211 _0440_
*212 _0441_
*213 _0442_
*214 _0443_
*215 _0444_
*216 _0445_
*218 _0447_
*219 _0448_
*220 _0449_
*221 _0450_
*222 _0451_
*223 _0452_
*224 _0453_
*225 _0454_
*226 _0455_
*227 _0456_
*228 _0457_
*229 _0458_
*230 _0459_
*231 _0460_
*232 _0461_
*233 _0462_
*234 _0463_
*235 _0464_
*236 _0465_
*237 _0466_
*238 _0467_
*239 _0468_
*240 _0469_
*241 _0470_
*242 _0471_
*243 _0472_
*244 _0473_
*245 _0474_
*246 _0475_
*247 _0476_
*248 _0477_
*249 _0478_
*250 _0479_
*251 _0480_
*252 _0481_
*253 _0482_
*254 _0483_
*255 _0484_
*256 _0485_
*257 _0486_
*258 _0487_
*259 _0488_
*260 _0489_
*261 _0490_
*262 _0491_
*263 _0492_
*264 _0493_
*265 _0494_
*266 _0495_
*267 _0496_
*268 _0497_
*269 _0498_
*270 _0499_
*271 _0500_
*272 _0501_
*273 _0502_
*274 _0503_
*275 _0504_
*276 _0505_
*277 _0506_
*278 _0507_
*279 _0508_
*280 _0509_
*281 _0510_
*282 _0511_
*283 _0512_
*284 _0513_
*285 _0514_
*286 _0515_
*287 _0516_
*288 _0517_
*289 _0518_
*290 _0519_
*291 _0520_
*292 _0521_
*293 _0522_
*294 _0523_
*295 _0524_
*296 _0525_
*297 _0526_
*298 _0527_
*299 _0528_
*300 _0529_
*301 _0530_
*302 _0531_
*303 _0532_
*304 _0533_
*305 _0534_
*306 _0535_
*307 _0536_
*308 _0537_
*309 _0538_
*310 _0539_
*311 _0540_
*312 _0541_
*313 _0542_
*314 _0543_
*315 _0544_
*316 _0545_
*317 _0546_
*318 _0547_
*319 _0548_
*320 _0549_
*321 _0550_
*322 _0551_
*323 _0552_
*324 _0553_
*325 _0554_
*326 _0555_
*327 _0556_
*328 _0557_
*329 _0558_
*330 _0559_
*331 _0560_
*332 _0561_
*333 _0562_
*334 _0563_
*335 _0564_
*336 _0565_
*337 _0566_
*338 _0567_
*339 _0568_
*340 _0569_
*341 _0570_
*342 _0571_
*343 _0572_
*344 _0573_
*345 _0574_
*346 _0575_
*347 _0576_
*348 _0577_
*349 _0578_
*350 _0579_
*351 _0580_
*352 _0581_
*353 _0582_
*354 _0583_
*355 _0584_
*356 _0585_
*357 _0586_
*358 _0587_
*359 _0588_
*360 _0589_
*361 _0590_
*362 _0591_
*363 _0592_
*364 _0593_
*365 _0594_
*366 _0595_
*367 _0596_
*368 _0597_
*369 _0598_
*370 _0599_
*371 _0600_
*372 _0601_
*373 _0602_
*374 _0603_
*375 _0604_
*376 _0605_
*377 _0606_
*378 _0607_
*379 _0608_
*380 _0609_
*381 _0610_
*382 _0611_
*383 _0612_
*384 _0613_
*385 _0614_
*386 _0615_
*387 _0616_
*388 _0617_
*389 _0618_
*390 _0619_
*391 _0620_
*392 _0621_
*393 _0622_
*394 _0623_
*395 _0624_
*396 _0625_
*397 _0626_
*398 _0627_
*399 _0628_
*400 _0629_
*401 _0630_
*402 _0631_
*403 _0632_
*404 _0633_
*405 _0634_
*406 _0635_
*407 _0636_
*408 _0637_
*409 _0638_
*410 _0639_
*411 _0640_
*412 _0641_
*413 _0642_
*414 _0643_
*415 _0644_
*416 _0645_
*417 _0646_
*418 _0647_
*419 _0648_
*420 _0649_
*421 _0650_
*422 _0651_
*423 _0652_
*424 _0653_
*425 _0654_
*426 _0655_
*427 _0656_
*428 _0657_
*429 _0658_
*430 _0659_
*431 _0660_
*432 _0661_
*433 _0662_
*434 _0663_
*435 _0664_
*436 _0665_
*437 _0666_
*438 _0667_
*439 _0668_
*440 _0669_
*441 _0670_
*442 _0671_
*443 _0672_
*444 _0673_
*445 _0674_
*446 _0675_
*447 _0676_
*448 _0677_
*449 _0678_
*450 _0679_
*451 _0680_
*452 _0681_
*453 _0682_
*454 _0683_
*455 _0684_
*456 _0685_
*457 _0686_
*458 _0687_
*459 _0688_
*460 _0689_
*461 _0690_
*462 _0691_
*463 _0692_
*464 _0693_
*465 _0694_
*466 _0695_
*467 _0696_
*468 _0697_
*469 _0698_
*470 _0699_
*471 _0700_
*472 _0701_
*473 _0702_
*474 _0703_
*475 _0704_
*476 _0705_
*477 _0706_
*478 _0707_
*479 _0708_
*480 _0709_
*481 _0710_
*482 _0711_
*483 _0712_
*484 _0713_
*485 _0714_
*486 _0715_
*487 _0716_
*488 _0717_
*489 _0718_
*490 _0719_
*491 _0720_
*492 _0721_
*493 _0722_
*494 _0723_
*495 _0724_
*496 _0725_
*497 _0726_
*498 _0727_
*499 _0728_
*500 _0729_
*501 _0730_
*502 _0731_
*503 _0732_
*504 _0733_
*505 _0734_
*506 _0735_
*507 _0736_
*508 _0737_
*509 _0738_
*510 _0739_
*511 _0740_
*512 _0741_
*513 _0742_
*514 _0743_
*515 _0744_
*516 _0745_
*517 _0746_
*518 _0747_
*519 _0748_
*520 _0749_
*521 _0750_
*522 _0751_
*523 _0752_
*524 _0753_
*525 _0754_
*526 _0755_
*527 _0756_
*528 _0757_
*529 _0758_
*530 _0759_
*531 _0760_
*532 _0761_
*533 _0762_
*534 _0763_
*535 _0764_
*536 _0765_
*537 _0766_
*538 _0767_
*539 _0768_
*540 _0769_
*541 _0770_
*542 _0771_
*543 _0772_
*544 _0773_
*545 _0774_
*546 _0775_
*547 _0776_
*548 _0777_
*549 _0778_
*550 _0779_
*551 _0780_
*552 _0781_
*553 _0782_
*554 _0783_
*555 _0784_
*556 _0785_
*557 _0786_
*558 _0787_
*559 _0788_
*560 _0789_
*561 _0790_
*562 _0791_
*563 _0792_
*564 _0793_
*565 _0794_
*566 _0795_
*567 _0796_
*568 _0797_
*569 _0798_
*570 _0799_
*571 _0800_
*572 _0801_
*573 _0802_
*574 _0803_
*575 _0804_
*576 _0805_
*577 _0806_
*578 _0807_
*579 _0808_
*580 _0809_
*581 _0810_
*582 _0811_
*583 _0812_
*584 _0813_
*585 _0814_
*586 _0815_
*587 _0816_
*588 _0817_
*589 _0818_
*590 _0819_
*591 _0820_
*592 _0821_
*593 _0822_
*594 _0823_
*595 _0824_
*596 _0825_
*597 _0826_
*598 _0827_
*599 _0828_
*600 _0829_
*601 _0830_
*602 _0831_
*603 _0832_
*604 _0833_
*605 _0834_
*606 _0835_
*607 _0836_
*608 _0837_
*609 _0838_
*610 _0839_
*611 _0840_
*612 _0841_
*613 _0842_
*614 _0843_
*615 _0844_
*616 _0845_
*617 _0846_
*618 _0847_
*619 _0848_
*620 _0849_
*621 _0850_
*622 _0851_
*623 _0852_
*624 _0853_
*625 _0854_
*626 _0855_
*627 _0856_
*628 _0857_
*629 _0858_
*630 _0859_
*631 _0860_
*632 _0861_
*633 _0862_
*634 _0863_
*635 _0864_
*636 _0865_
*637 _0866_
*638 _0867_
*639 _0868_
*640 _0869_
*641 _0870_
*642 _0871_
*643 _0872_
*644 _0873_
*645 _0874_
*646 _0875_
*647 _0876_
*648 _0877_
*649 _0878_
*650 _0879_
*651 _0880_
*652 _0881_
*653 _0882_
*654 _0883_
*655 _0884_
*656 _0885_
*657 _0886_
*658 _0887_
*659 _0888_
*660 _0889_
*661 _0890_
*662 _0891_
*663 _0892_
*664 _0893_
*665 _0894_
*666 _0895_
*667 _0896_
*668 _0897_
*669 _0898_
*670 _0899_
*671 _0900_
*672 _0901_
*673 _0902_
*674 _0903_
*675 _0904_
*676 _0905_
*677 _0906_
*678 _0907_
*679 _0908_
*680 _0909_
*681 _0910_
*682 _0911_
*683 _0912_
*684 _0913_
*685 _0914_
*686 _0915_
*687 _0916_
*688 _0917_
*689 _0918_
*690 _0919_
*691 _0920_
*692 _0921_
*693 _0922_
*694 _0923_
*695 _0924_
*696 _0925_
*697 _0926_
*698 _0927_
*699 _0928_
*700 _0929_
*701 _0930_
*702 _0931_
*703 _0932_
*704 _0933_
*705 _0934_
*706 _0935_
*707 _0936_
*708 _0937_
*709 _0938_
*710 _0939_
*711 _0940_
*712 _0941_
*713 _0942_
*714 _0943_
*715 _0944_
*716 _0945_
*717 _0946_
*718 _0947_
*719 _0948_
*720 _0949_
*721 _0950_
*722 _0951_
*723 _0952_
*724 _0953_
*725 _0954_
*726 _0955_
*727 _0956_
*728 _0957_
*729 _0958_
*730 _0959_
*731 _0960_
*732 _0961_
*733 _0962_
*734 _0963_
*735 _0964_
*736 _0965_
*737 _0966_
*738 _0967_
*739 _0968_
*740 _0969_
*741 _0970_
*742 _0971_
*743 _0972_
*744 _0973_
*745 _0974_
*746 _0975_
*747 _0976_
*748 _0977_
*749 _0978_
*750 _0979_
*751 _0980_
*752 _0981_
*753 _0982_
*754 _0983_
*755 _0984_
*756 _0985_
*757 _0986_
*758 _0987_
*759 _0988_
*760 _0989_
*761 _0990_
*762 _0991_
*763 _0992_
*764 net120
*765 _0994_
*766 _0995_
*767 _0996_
*768 _0997_
*769 net119
*770 _0999_
*771 _1000_
*772 _1001_
*773 _1002_
*774 _1003_
*775 _1004_
*776 _1005_
*777 _1006_
*778 _1007_
*779 _1008_
*780 _1009_
*781 _1010_
*782 _1011_
*783 _1012_
*784 _1013_
*785 _1014_
*786 _1015_
*787 _1016_
*788 _1017_
*789 _1018_
*790 _1019_
*791 _1020_
*792 _1021_
*793 _1022_
*794 _1023_
*795 _1024_
*796 _1025_
*797 _1026_
*798 _1027_
*799 _1028_
*800 _1029_
*801 _1030_
*802 _1031_
*803 _1032_
*804 _1235_
*805 _1236_
*806 _1237_
*807 _1238_
*808 _1239_
*809 _1240_
*810 _1241_
*811 _1242_
*812 _1243_
*813 _1244_
*814 _1245_
*815 _1246_
*816 _1247_
*817 _1248_
*818 _1249_
*819 _1250_
*820 _1251_
*821 _1252_
*822 _1253_
*823 _1254_
*824 _1255_
*825 _1256_
*826 _1257_
*827 _1258_
*828 _1259_
*829 _1260_
*830 _1261_
*831 _1262_
*832 _1263_
*833 _1264_
*834 _1265_
*835 _1266_
*836 _1267_
*837 net441
*838 net442
*839 net443
*840 net444
*841 net445
*842 net446
*843 net447
*844 net448
*845 net449
*846 net450
*847 net451
*848 net452
*849 net453
*850 net454
*851 net455
*852 net456
*853 net457
*854 net458
*855 net459
*856 net460
*857 net461
*858 net462
*859 net463
*860 net464
*861 net465
*862 net466
*863 net467
*864 net468
*865 net469
*866 net470
*867 net471
*868 net472
*869 net473
*870 net474
*871 net475
*872 net476
*873 net477
*874 net478
*875 net479
*876 net480
*877 net481
*878 net482
*879 net483
*880 net484
*881 net485
*882 net486
*883 net487
*884 net488
*885 net489
*886 net490
*887 net491
*888 net492
*889 net493
*890 net494
*891 net495
*892 net496
*893 net497
*894 net498
*895 net499
*896 net500
*897 net501
*898 net502
*899 net503
*900 net505
*901 net506
*902 net509
*903 net510
*904 net511
*905 net512
*906 net513
*907 net514
*908 net515
*909 net516
*910 net517
*911 net518
*912 net520
*913 net521
*914 net523
*915 net524
*916 net525
*917 net527
*918 net528
*919 net529
*920 net530
*921 net531
*922 net532
*923 net533
*924 net534
*925 net7
*926 net8
*927 net9
*928 net10
*929 net11
*930 net12
*931 net13
*932 net14
*933 net15
*934 net16
*935 net17
*936 net18
*937 net19
*938 net20
*939 net21
*940 net22
*941 net23
*942 net24
*943 net25
*944 net26
*945 net27
*946 net28
*947 net29
*948 net30
*949 net31
*950 net32
*951 net33
*952 net34
*953 net35
*954 net36
*955 net37
*956 net38
*957 net39
*958 net40
*959 net41
*960 net42
*961 net43
*962 net44
*963 net45
*964 net46
*965 net47
*966 net48
*967 net49
*968 net50
*969 net51
*970 net52
*971 net53
*972 net54
*973 net55
*974 net56
*975 net57
*976 net58
*977 net59
*978 net60
*979 net61
*980 net62
*981 net63
*982 net64
*983 net65
*984 net66
*985 net67
*986 net68
*987 net69
*988 net70
*989 net71
*990 net72
*991 net73
*992 net74
*993 net75
*994 net76
*995 net77
*996 net78
*997 net79
*998 net80
*999 net81
*1000 net82
*1001 net83
*1002 net84
*1003 net85
*1004 net86
*1005 net87
*1006 net88
*1007 net89
*1008 net90
*1009 net91
*1010 net92
*1011 net93
*1012 net94
*1013 net95
*1014 net96
*1015 net97
*1016 net98
*1017 net99
*1018 net100
*1019 net101
*1020 net102
*1021 net103
*1022 net104
*1023 net105
*1024 net106
*1025 net107
*1026 net108
*1027 net109
*1028 net110
*1029 net111
*1030 net112
*1031 net113
*1032 net114
*1033 net115
*1034 net116
*1035 net117
*1036 net118
*1037 _1555_[1]
*1038 _1559_[1]
*1039 _1559_[2]
*1040 net121
*1041 net141
*1042 net143
*1043 net145
*1044 net147
*1045 net149
*1046 net150
*1047 net123
*1048 net125
*1049 net127
*1050 net129
*1051 net131
*1052 net133
*1053 net135
*1054 net137
*1055 net139
*1056 net410
*1057 net412
*1058 net414
*1059 net416
*1060 net418
*1061 net420
*1062 net422
*1063 net424
*1064 net426
*1065 net428
*1066 net430
*1067 net432
*1068 net434
*1069 net436
*1070 net438
*1071 net440
*1072 net538
*1073 net387
*1074 net388
*1075 net389
*1076 net390
*1077 net391
*1078 net392
*1079 net393
*1080 net394
*1081 net395
*1082 net396
*1083 net382
*1084 net397
*1085 net398
*1086 net399
*1087 net400
*1088 net401
*1089 net402
*1090 net403
*1091 net404
*1092 net405
*1093 net406
*1094 net383
*1095 net407
*1096 net408
*1097 net384
*1098 net539
*1099 net540
*1100 net385
*1101 net541
*1102 clknet_0_clk
*1103 net386
*1104 net224
*1105 net245
*1106 net247
*1107 net249
*1108 net251
*1109 net253
*1110 net255
*1111 net258
*1112 net260
*1113 net262
*1114 net264
*1115 net226
*1116 net266
*1117 net268
*1118 net270
*1119 net272
*1120 net274
*1121 net277
*1122 net279
*1123 net281
*1124 net284
*1125 net286
*1126 net228
*1127 net288
*1128 net290
*1129 net230
*1130 net232
*1131 net234
*1132 net237
*1133 net239
*1134 net241
*1135 net243
*1136 net339
*1137 net341
*1138 net343
*1139 net345
*1140 net347
*1141 net349
*1142 net351
*1143 net353
*1144 net355
*1145 net357
*1146 net359
*1147 net361
*1148 net363
*1149 net365
*1150 net367
*1151 net369
*1152 net371
*1153 net373
*1154 net375
*1155 net377
*1156 net379
*1157 net381
*1158 net322
*1159 net324
*1160 net327
*1161 net330
*1162 net333
*1163 net335
*1164 net337
*1165 net535
*1166 net298
*1167 net299
*1168 net300
*1169 net301
*1170 net302
*1171 net303
*1172 net304
*1173 net305
*1174 net306
*1175 net307
*1176 net536
*1177 net308
*1178 net309
*1179 net310
*1180 net311
*1181 net312
*1182 net313
*1183 net314
*1184 net315
*1185 net316
*1186 net317
*1187 net537
*1188 net318
*1189 net319
*1190 net291
*1191 net292
*1192 net293
*1193 net294
*1194 net295
*1195 net296
*1196 net297
*1197 net153
*1198 net174
*1199 net176
*1200 net178
*1201 net180
*1202 net182
*1203 net184
*1204 net187
*1205 net190
*1206 net192
*1207 net194
*1208 net155
*1209 net197
*1210 net199
*1211 net202
*1212 net204
*1213 net206
*1214 net209
*1215 net211
*1216 net213
*1217 net216
*1218 net218
*1219 net157
*1220 net220
*1221 net222
*1222 net159
*1223 net161
*1224 net163
*1225 net166
*1226 net168
*1227 net170
*1228 net172
*1229 bit_index[0]
*1230 bit_index[1]
*1231 bit_index[2]
*1232 busy
*1233 clk
*1234 clk_count[0]
*1235 clk_count[10]
*1236 clk_count[11]
*1237 clk_count[12]
*1238 clk_count[13]
*1239 clk_count[14]
*1240 clk_count[15]
*1241 clk_count[1]
*1242 clk_count[2]
*1243 clk_count[3]
*1244 clk_count[4]
*1245 clk_count[5]
*1246 clk_count[6]
*1247 clk_count[7]
*1248 clk_count[8]
*1249 clk_count[9]
*1250 data_in[0]
*1251 data_in[1]
*1252 data_in[2]
*1253 data_in[3]
*1254 data_in[4]
*1255 data_in[5]
*1256 data_in[6]
*1257 data_in[7]
*1258 reset
*1259 shift_reg[0]
*1260 shift_reg[1]
*1261 shift_reg[2]
*1262 shift_reg[3]
*1263 shift_reg[4]
*1264 shift_reg[5]
*1265 shift_reg[6]
*1266 shift_reg[7]
*1267 start
*1268 start_prev
*1269 state[0]
*1270 state[1]
*1271 tx
*1272 tx_done
*1273 net122
*1274 net124
*1275 net126
*1276 net128
*1277 net130
*1278 net132
*1279 net134
*1280 net136
*1281 net138
*1282 net140
*1283 net142
*1284 net144
*1285 net146
*1286 net148
*1287 net151
*1288 net152
*1289 net154
*1290 net156
*1291 net158
*1292 net160
*1293 net162
*1294 net164
*1295 net165
*1296 net167
*1297 net169
*1298 net171
*1299 net173
*1300 net175
*1301 net177
*1302 net179
*1303 net181
*1304 net183
*1305 net185
*1306 net186
*1307 net188
*1308 net189
*1309 net191
*1310 net193
*1311 net195
*1312 net196
*1313 net198
*1314 net200
*1315 net201
*1316 net203
*1317 net205
*1318 net207
*1319 net208
*1320 net210
*1321 net212
*1322 net214
*1323 net215
*1324 net217
*1325 net219
*1326 net221
*1327 net223
*1328 net225
*1329 net227
*1330 net229
*1331 net231
*1332 net233
*1333 net235
*1334 net236
*1335 net238
*1336 net240
*1337 net242
*1338 net244
*1339 net246
*1340 net248
*1341 net250
*1342 net252
*1343 net254
*1344 net256
*1345 net257
*1346 net259
*1347 net261
*1348 net263
*1349 net265
*1350 net267
*1351 net269
*1352 net271
*1353 net273
*1354 net275
*1355 net276
*1356 net278
*1357 net280
*1358 net282
*1359 net283
*1360 net285
*1361 net287
*1362 net289
*1363 net320
*1364 net321
*1365 net323
*1366 net325
*1367 net326
*1368 net328
*1369 net329
*1370 net331
*1371 net332
*1372 net334
*1373 net336
*1374 net338
*1375 net340
*1376 net342
*1377 net344
*1378 net346
*1379 net348
*1380 net350
*1381 net352
*1382 net354
*1383 net356
*1384 net358
*1385 net360
*1386 net362
*1387 net364
*1388 net366
*1389 net368
*1390 net370
*1391 net372
*1392 net374
*1393 net376
*1394 net378
*1395 net380
*1396 net409
*1397 net411
*1398 net413
*1399 net415
*1400 net417
*1401 net419
*1402 net421
*1403 net423
*1404 net425
*1405 net427
*1406 net429
*1407 net431
*1408 net433
*1409 net435
*1410 net437
*1411 net439
*1412 net504
*1413 net507
*1414 net508
*1415 net519
*1416 net522
*1417 net526
*1418 clknet_2_0__leaf_clk
*1419 clknet_2_1__leaf_clk
*1420 clknet_2_2__leaf_clk
*1421 clknet_2_3__leaf_clk
*1422 _1825_
*1423 _1826_
*1424 _1827_
*1425 _1828_
*1426 _1829_
*1427 _1830_
*1428 _1831_
*1429 _1832_
*1430 _1833_
*1431 _1834_
*1432 _1835_
*1433 _1836_
*1434 _1837_
*1435 _1838_
*1436 _1839_
*1437 _1840_
*1438 _1841_
*1439 _1842_
*1440 _1843_
*1441 _1844_
*1442 _1845_
*1443 _1846_
*1444 _1847_
*1445 _1848_
*1446 _1849_
*1447 _1850_
*1448 _1851_
*1449 _1852_
*1450 _1853_
*1451 _1854_
*1452 _1855_
*1453 _1856_
*1454 _1857_
*1455 _1858_
*1456 _1859_
*1457 _1860_
*1458 _1861_
*1459 _1862_
*1460 _1863_
*1461 _1864_
*1462 _1865_
*1463 _1866_
*1464 _1867_
*1465 _1868_
*1466 _1869_
*1467 _1870_
*1468 _1871_
*1469 _1872_
*1470 _1873_
*1471 _1874_
*1472 _1875_
*1473 _1876_
*1474 _1877_
*1475 _1878_
*1476 _1879_
*1477 _1880_
*1478 _1881_
*1479 _1882_
*1480 _1883_
*1481 _1884_
*1482 _1885_
*1483 _1886_
*1484 _1887_
*1485 _1888_
*1486 _1889_
*1487 _1890_
*1488 _1891_
*1489 _1892_
*1490 _1893_
*1491 _1894_
*1492 _1895_
*1493 _1896_
*1494 _1897_
*1495 _1898_
*1496 _1899_
*1497 _1900_
*1498 _1901_
*1499 _1902_
*1500 _1903_
*1501 _1904_
*1502 _1905_
*1503 _1906_
*1504 _1907_
*1505 _1908_
*1506 _1909_
*1507 _1910_
*1508 _1911_
*1509 _1912_
*1510 _1913_
*1511 _1914_
*1512 _1915_
*1513 _1916_
*1514 _1917_
*1515 _1918_
*1516 _1919_
*1517 _1920_
*1518 _1921_
*1519 _1922_
*1520 _1923_
*1521 _1924_
*1522 _1925_
*1523 _1926_
*1524 _1927_
*1525 _1928_
*1526 _1929_
*1527 _1930_
*1528 _1931_
*1529 _1932_
*1530 _1933_
*1531 _1934_
*1532 _1935_
*1533 _1936_
*1534 _1937_
*1535 _1938_
*1536 _1939_
*1537 _1940_
*1538 _1941_
*1539 _1942_
*1540 _1943_
*1541 _1944_
*1542 _1945_
*1543 _1946_
*1544 _1947_
*1545 _1948_
*1546 _1949_
*1547 _1950_
*1548 _1951_
*1549 _1952_
*1550 _1953_
*1551 _1954_
*1552 _1955_
*1553 _1956_
*1554 _1957_
*1555 _1958_
*1556 _1959_
*1557 _1960_
*1558 _1961_
*1559 _1962_
*1560 _1963_
*1561 _1964_
*1562 _1965_
*1563 _1966_
*1564 _1967_
*1565 _1968_
*1566 _1969_
*1567 _1970_
*1568 _1971_
*1569 _1972_
*1570 _1973_
*1571 _1974_
*1572 _1975_
*1573 _1976_
*1574 _1977_
*1575 _1978_
*1576 _1979_
*1577 _1980_
*1578 _1981_
*1579 _1982_
*1580 _1983_
*1581 _1984_
*1582 _1985_
*1583 _1986_
*1584 _1987_
*1585 _1988_
*1586 _1989_
*1587 _1990_
*1588 _1991_
*1589 _1992_
*1590 _1993_
*1591 _1994_
*1592 _1995_
*1593 _1996_
*1594 _1997_
*1595 _1998_
*1596 _1999_
*1597 _2000_
*1598 _2001_
*1599 _2002_
*1600 _2003_
*1601 _2004_
*1602 _2005_
*1603 _2006_
*1604 _2007_
*1605 _2008_
*1606 _2009_
*1607 _2010_
*1608 _2011_
*1609 _2012_
*1610 _2013_
*1611 _2014_
*1612 _2015_
*1613 _2016_
*1614 _2017_
*1615 _2018_
*1616 _2019_
*1617 _2020_
*1618 _2021_
*1619 _2022_
*1620 _2023_
*1621 _2024_
*1622 _2025_
*1623 _2026_
*1624 _2027_
*1625 _2028_
*1626 _2029_
*1627 _2030_
*1628 _2031_
*1629 _2032_
*1630 _2033_
*1631 _2034_
*1632 _2035_
*1633 _2036_
*1634 _2037_
*1635 _2038_
*1636 _2039_
*1637 _2040_
*1638 _2041_
*1639 _2042_
*1640 _2043_
*1641 _2044_
*1642 _2045_
*1643 _2046_
*1644 _2047_
*1645 _2048_
*1646 _2049_
*1647 _2050_
*1648 _2051_
*1649 _2052_
*1650 _2053_
*1651 _2054_
*1652 _2055_
*1653 _2056_
*1654 _2057_
*1655 _2058_
*1656 _2059_
*1657 _2060_
*1658 _2061_
*1659 _2062_
*1660 _2063_
*1661 _2064_
*1662 _2065_
*1663 _2066_
*1664 _2067_
*1665 _2068_
*1666 _2069_
*1667 _2070_
*1668 _2071_
*1669 _2072_
*1670 _2073_
*1671 _2074_
*1672 _2075_
*1673 _2076_
*1674 _2077_
*1675 _2078_
*1676 _2079_
*1677 _2080_
*1678 _2081_
*1679 _2082_
*1680 _2083_
*1681 _2084_
*1682 _2085_
*1683 _2086_
*1684 _2087_
*1685 _2088_
*1686 _2089_
*1687 _2090_
*1688 _2091_
*1689 _2092_
*1690 _2093_
*1691 _2094_
*1692 _2095_
*1693 _2096_
*1694 _2097_
*1695 _2098_
*1696 _2099_
*1697 _2100_
*1698 _2101_
*1699 _2102_
*1700 _2103_
*1701 _2104_
*1702 _2105_
*1703 _2106_
*1704 _2107_
*1705 _2108_
*1706 _2109_
*1707 _2110_
*1708 _2111_
*1709 _2112_
*1710 _2113_
*1711 _2114_
*1712 _2115_
*1713 _2116_
*1714 _2117_
*1715 _2118_
*1716 _2119_
*1717 _2120_
*1718 _2121_
*1719 _2122_
*1720 _2123_
*1721 _2124_
*1722 _2125_
*1723 _2126_
*1724 _2127_
*1725 _2128_
*1726 _2129_
*1727 _2130_
*1728 _2131_
*1729 _2132_
*1730 _2133_
*1731 _2134_
*1732 _2135_
*1733 _2136_
*1734 _2137_
*1735 _2138_
*1736 _2139_
*1737 _2140_
*1738 _2141_
*1739 _2142_
*1740 _2143_
*1741 _2144_
*1742 _2145_
*1743 _2146_
*1744 _2147_
*1745 _2148_
*1746 _2149_
*1747 _2150_
*1748 _2151_
*1749 _2152_
*1750 _2153_
*1751 _2154_
*1752 _2155_
*1753 _2156_
*1754 _2157_
*1755 _2158_
*1756 _2159_
*1757 _2160_
*1758 _2161_
*1759 _2162_
*1760 _2163_
*1761 _2164_
*1762 _2165_
*1763 _2166_
*1764 _2167_
*1765 _2168_
*1766 _2169_
*1767 _2170_
*1768 _2171_
*1769 _2172_
*1770 _2173_
*1771 _2174_
*1772 _2175_
*1773 _2176_
*1774 _2177_
*1775 _2178_
*1776 _2179_
*1777 _2180_
*1778 _2181_
*1779 _2182_
*1780 _2183_
*1781 _2184_
*1782 _2185_
*1783 _2186_
*1784 _2187_
*1785 _2188_
*1786 _2189_
*1787 _2190_
*1788 _2191_
*1789 _2192_
*1790 _2193_
*1791 _2194_
*1792 _2195_
*1793 _2196_
*1794 _2197_
*1795 _2198_
*1796 _2199_
*1797 _2200_
*1798 _2201_
*1799 _2202_
*1800 _2203_
*1801 _2204_
*1802 _2205_
*1803 _2206_
*1804 _2207_
*1805 _2208_
*1806 _2209_
*1807 _2210_
*1808 _2211_
*1809 _2212_
*1810 _2213_
*1811 _2214_
*1812 _2215_
*1813 _2216_
*1814 _2217_
*1815 _2218_
*1816 _2219_
*1817 _2220_
*1818 _2221_
*1819 _2222_
*1820 _2223_
*1821 _2224_
*1822 _2225_
*1823 _2226_
*1824 _2227_
*1825 _2228_
*1826 _2229_
*1827 _2230_
*1828 _2231_
*1829 _2232_
*1830 _2233_
*1831 _2234_
*1832 _2235_
*1833 _2236_
*1834 _2237_
*1835 _2238_
*1836 _2239_
*1837 _2240_
*1838 _2241_
*1839 _2242_
*1840 _2243_
*1841 _2244_
*1842 _2245_
*1843 _2246_
*1844 _2247_
*1845 _2248_
*1846 PHY_EDGE_ROW_10_Right_10
*1847 _2250_
*1848 _2251_
*1849 _2252_
*1850 _2253_
*1851 PHY_EDGE_ROW_9_Right_9
*1852 _2255_
*1853 _2256_
*1854 _2257_
*1855 _2258_
*1856 _2259_
*1857 _2260_
*1858 _2261_
*1859 _2262_
*1860 _2263_
*1861 _2264_
*1862 _2265_
*1863 _2266_
*1864 _2267_
*1865 _2268_
*1866 _2269_
*1867 _2270_
*1868 _2271_
*1869 _2272_
*1870 _2273_
*1871 _2274_
*1872 _2275_
*1873 _2276_
*1874 _2277_
*1875 _2278_
*1876 PHY_EDGE_ROW_8_Right_8
*1877 _2280_
*1878 _2281_
*1879 _2282_
*1880 _2283_
*1881 _2284_
*1882 _2285_
*1883 PHY_EDGE_ROW_7_Right_7
*1884 _2287_
*1885 _2288_
*1886 _2289_
*1887 _2290_
*1888 _2291_
*1889 _2292_
*1890 _2293_
*1891 _2294_
*1892 _2295_
*1893 _2296_
*1894 _2297_
*1895 _2298_
*1896 _2299_
*1897 _2300_
*1898 _2301_
*1899 _2302_
*1900 _2303_
*1901 _2304_
*1902 _2305_
*1903 _2306_
*1904 _2307_
*1905 _2308_
*1906 _2309_
*1907 _2310_
*1908 _2311_
*1909 _2312_
*1910 _2313_
*1911 _2314_
*1912 _2315_
*1913 _2316_
*1914 _2317_
*1915 _2318_
*1916 _2319_
*1917 _2320_
*1918 _2321_
*1919 _2322_
*1920 _2323_
*1921 _2324_
*1922 _2325_
*1923 _2326_
*1924 _2327_
*1925 _2328_
*1926 _2329_
*1927 _2330_
*1928 PHY_EDGE_ROW_6_Right_6
*1929 _2332_
*1930 PHY_EDGE_ROW_5_Right_5
*1931 PHY_EDGE_ROW_4_Right_4
*1932 PHY_EDGE_ROW_3_Right_3
*1933 _2336_
*1934 _2337_
*1935 _2338_
*1936 _2339_
*1937 _2340_
*1938 _2341_
*1939 _2342_
*1940 _2343_
*1941 _2344_
*1942 _2345_
*1943 _2346_
*1944 _2347_
*1945 _2348_
*1946 _2349_
*1947 _2350_
*1948 _2351_
*1949 _2352_
*1950 _2353_
*1951 _2354_
*1952 _2355_
*1953 _2356_
*1954 _2357_
*1955 _2358_
*1956 _2359_
*1957 _2360_
*1958 _2361_
*1959 _2362_
*1960 _2363_
*1961 _2364_
*1962 _2365_
*1963 _2366_
*1964 _2367_
*1965 _2368_
*1966 _2369_
*1967 _2370_
*1968 _2371_
*1969 _2372_
*1970 _2373_
*1971 _2374_
*1972 _2375_
*1973 _2376_
*1974 _2377_
*1975 _2378_
*1976 _2379_
*1977 _2380_
*1978 _2381_
*1979 _2382_
*1980 _2383_
*1981 _2384_
*1982 _2385_
*1983 _2386_
*1984 _2387_
*1985 _2388_
*1986 _2389_
*1987 _2390_
*1988 _2391_
*1989 _2392_
*1990 _2393_
*1991 _2394_
*1992 _2395_
*1993 _2396_
*1994 _2397_
*1995 _2398_
*1996 _2399_
*1997 _2400_
*1998 _2401_
*1999 _2402_
*2000 _2403_
*2001 _2404_
*2002 _2405_
*2003 _2406_
*2004 _2407_
*2005 _2408_
*2006 _2409_
*2007 _2410_
*2008 _2411_
*2009 _2412_
*2010 _2413_
*2011 _2414_
*2012 _2415_
*2013 _2416_
*2014 _2417_
*2015 _2418_
*2016 _2419_
*2017 _2420_
*2018 _2421_
*2019 _2422_
*2020 _2423_
*2021 _2424_
*2022 _2425_
*2023 _2426_
*2024 _2427_
*2025 _2428_
*2026 _2429_
*2027 _2430_
*2028 _2431_
*2029 _2432_
*2030 _2433_
*2031 _2434_
*2032 _2435_
*2033 _2436_
*2034 _2437_
*2035 _2438_
*2036 _2439_
*2037 PHY_EDGE_ROW_2_Right_2
*2038 PHY_EDGE_ROW_1_Right_1
*2039 _2442_
*2040 _2443_
*2041 _2444_
*2042 _2445_
*2043 _2446_
*2044 _2447_
*2045 _2448_
*2046 _2449_
*2047 _2450_
*2048 _2451_
*2049 _2452_
*2050 _2453_
*2051 _2454_
*2052 _2455_
*2053 PHY_EDGE_ROW_0_Right_0
*2054 _2457_
*2055 _2458_
*2056 _2459_
*2057 _2460_
*2058 _2461_
*2059 _2462_
*2060 _2463_
*2061 _2464_
*2062 _2465_
*2063 _2466_
*2064 _2467_
*2065 _2468_
*2066 _2469_
*2067 _2470_
*2068 _2471_
*2069 _2472_
*2070 _2473_
*2071 _2474_
*2072 _2475_
*2073 _2476_
*2074 _2477_
*2075 _2478_
*2076 _2479_
*2077 _2480_
*2078 _2481_
*2079 _2482_
*2080 _2483_
*2081 _2484_
*2082 _2485_
*2083 _2486_
*2084 _2487_
*2085 _2488_
*2086 _2489_
*2087 _2490_
*2088 _2491_
*2089 _2492_
*2090 _2493_
*2091 _2494_
*2092 _2495_
*2093 _2496_
*2094 _2497_
*2095 _2498_
*2096 _2499_
*2097 _2500_
*2098 _2501_
*2099 _2502_
*2100 _2503_
*2101 _2504_
*2102 _2505_
*2103 _2506_
*2104 _2507_
*2105 _2508_
*2106 _2509_
*2107 _2510_
*2108 _2511_
*2109 _2512_
*2110 _2513_
*2111 _2514_
*2112 _2515_
*2113 _2516_
*2114 _2517_
*2115 _2518_
*2116 _2519_
*2117 _2520_
*2118 _2521_
*2119 _2522_
*2120 _2523_
*2121 _2524_
*2122 _2525_
*2123 _2526_
*2124 _2527_
*2125 _2528_
*2126 _2529_
*2127 _2530_
*2128 _2531_
*2129 _2532_
*2130 _2533_
*2131 _2534_
*2132 _2535_
*2133 _2536_
*2134 _2537_
*2135 _2538_
*2136 _2539_
*2137 _2540_
*2138 _2541_
*2139 _2542_
*2140 _2543_
*2141 _2544_
*2142 _2545_
*2143 _2546_
*2144 _2547_
*2145 _2548_
*2146 _2549_
*2147 _2550_
*2148 _2551_
*2149 _2552_
*2150 _2553_
*2151 _2554_
*2152 _2555_
*2153 _2556_
*2154 _2557_
*2155 _2558_
*2156 _2559_
*2157 _2560_
*2158 _2561_
*2159 _2562_
*2160 _2563_
*2161 _2564_
*2162 _2565_
*2163 _2566_
*2164 _2567_
*2165 _2568_
*2166 _2569_
*2167 _2570_
*2168 _2571_
*2169 _2572_
*2170 _2573_
*2171 _2574_
*2172 _2575_
*2173 _2576_
*2174 _2577_
*2175 _2578_
*2176 _2579_
*2177 _2580_
*2178 _2581_
*2179 _2582_
*2180 _2583_
*2181 _2584_
*2182 _2585_
*2183 _2586_
*2184 _2587_
*2185 _2588_
*2186 _2589_
*2187 _2590_
*2188 _2591_
*2189 _2592_
*2190 _2593_
*2191 _2594_
*2192 _2595_
*2193 _2596_
*2194 _2597_
*2195 _2598_
*2196 _2599_
*2197 _2600_
*2198 _2601_
*2199 _2602_
*2200 _2603_
*2201 _2604_
*2202 _2605_
*2203 _2606_
*2204 _2607_
*2205 _2608_
*2206 _2609_
*2207 _2610_
*2208 _2611_
*2209 _2612_
*2210 _2613_
*2211 _2614_
*2212 _2615_
*2213 _2616_
*2214 _2617_
*2215 _2618_
*2216 _2619_
*2217 _2620_
*2218 _2621_
*2219 _2622_
*2220 _2623_
*2221 _2624_
*2222 _2625_
*2223 _2626_
*2224 _2627_
*2225 _2628_
*2226 _2629_
*2227 _2630_
*2228 _2631_
*2229 _2632_
*2230 _2633_
*2231 _2634_
*2232 _2635_
*2233 _2636_
*2234 _2637_
*2235 _2638_
*2236 _2639_
*2237 _2640_
*2238 _2641_
*2239 _2642_
*2240 _2643_
*2241 _2644_
*2242 _2645_
*2243 _2646_
*2244 _2647_
*2245 _2648_
*2246 _2649_
*2247 _2650_
*2248 _2651_
*2249 _2652_
*2250 _2653_
*2251 _2654_
*2252 _2655_
*2253 _2656_
*2254 _2657_
*2255 _2658_
*2256 _2659_
*2257 _2660_
*2258 _2576__442
*2259 _2587__443
*2260 _2591__444
*2261 _2594__445
*2262 _2598__446
*2263 _2602__447
*2264 _1829__448
*2265 _1833__449
*2266 _1838__450
*2267 _1842__451
*2268 _1855__452
*2269 _1861__453
*2270 _1867__454
*2271 _1872__455
*2272 _1888__456
*2273 _1892__457
*2274 _1897__458
*2275 _1900__459
*2276 _1919__460
*2277 _1916__461
*2278 _1924__462
*2279 _1931__463
*2280 _1944__464
*2281 _1946__465
*2282 _1950__466
*2283 _1956__467
*2284 _1960__468
*2285 _1965__469
*2286 _1969__470
*2287 _1972__471
*2288 _2027__472
*2289 _2023__473
*2290 _2030__474
*2291 _2034__475
*2292 _2038__476
*2293 _2043__477
*2294 _2048__478
*2295 _2079__479
*2296 _2082__480
*2297 _2086__481
*2298 _2091__482
*2299 _2103__483
*2300 _2108__484
*2301 _2114__485
*2302 _2118__486
*2303 _2131__487
*2304 _2200__488
*2305 _2207__489
*2306 _2210__490
*2307 _2133__491
*2308 _2138__492
*2309 _2144__493
*2310 _2148__494
*2311 _2188__495
*2312 _2156__496
*2313 _2157__497
*2314 _2181__498
*2315 _2161__499
*2316 _2165__500
*2317 _2168__501
*2318 _2172__502
*2319 _2582__503
*2320 _1973__504
*2321 _2020__506
*2322 _2170__507
*2323 _2328__510
*2324 _1998__511
*2325 _2573__512
*2326 _2326__513
*2327 _2002__514
*2328 _2003__515
*2329 _2533__516
*2330 _2236__517
*2331 _2237__518
*2332 _2006__519
*2333 _2005__521
*2334 _2006__522
*2335 _2001__524
*2336 _2018__525
*2337 _1996__526
*2338 _2575__528
*2339 _2266__529
*2340 _2266__530
*2341 _2566__531
*2342 _2283__532
*2343 _2240__533
*2344 _2241__534
*2345 _2172__535
*2346 _2168__536
*2347 _2165__537
*2348 _1972__538
*2349 _1956__539
*2350 _1950__540
*2351 _1944__541
*2352 _1931__542
*2353 clkbuf_0_clk
*2354 _2433__8
*2355 _2337__9
*2356 _2342__10
*2357 _2349__11
*2358 _2357__12
*2359 _2362__13
*2360 _2367__14
*2361 _2374__15
*2362 _2382__16
*2363 _2387__17
*2364 _2392__18
*2365 _2397__19
*2366 _2253__20
*2367 _2259__21
*2368 _2267__22
*2369 _2312__23
*2370 _2322__24
*2371 _2314__25
*2372 _2332__26
*2373 _2444__27
*2374 _2450__28
*2375 _2455__29
*2376 _2462__30
*2377 _2467__31
*2378 _2473__32
*2379 _2478__33
*2380 _2484__34
*2381 _2489__35
*2382 _2495__36
*2383 _2500__37
*2384 _2506__38
*2385 _2510__39
*2386 _2514__40
*2387 _2272__41
*2388 _1999__42
*2389 _2325__43
*2390 _2572__44
*2391 _2325__45
*2392 _2280__46
*2393 _2317__47
*2394 _2313__48
*2395 _2534__49
*2396 _2442__50
*2397 _2448__51
*2398 _2453__52
*2399 _2460__53
*2400 _2465__54
*2401 _2471__55
*2402 _2476__56
*2403 _2482__57
*2404 _2487__58
*2405 _2493__59
*2406 _2498__60
*2407 _2504__61
*2408 _2508__62
*2409 _2512__63
*2410 _2516__64
*2411 _2536__65
*2412 _2017__66
*2413 _2251__67
*2414 _2434__68
*2415 _2338__69
*2416 _2343__70
*2417 _2350__71
*2418 _2358__72
*2419 _2363__73
*2420 _2368__74
*2421 _2375__75
*2422 _2383__76
*2423 _2388__77
*2424 _2393__78
*2425 _2398__79
*2426 _2543__80
*2427 _2543__81
*2428 _2432__82
*2429 _2432__83
*2430 _2336__84
*2431 _2336__85
*2432 _2341__86
*2433 _2341__87
*2434 _2348__88
*2435 _2348__89
*2436 _2356__90
*2437 _2356__91
*2438 _2361__92
*2439 _2361__93
*2440 _2366__94
*2441 _2366__95
*2442 _2373__96
*2443 _2373__97
*2444 _2381__98
*2445 _2381__99
*2446 _2386__100
*2447 _2386__101
*2448 _2391__102
*2449 _2391__103
*2450 _2396__104
*2451 _2396__105
*2452 _2252__106
*2453 _2252__107
*2454 _2258__108
*2455 _2258__109
*2456 _2541__110
*2457 _2240__111
*2458 _2250__112
*2459 _2288__113
*2460 _2564__114
*2461 _2565__115
*2462 _2283__116
*2463 _2244__117
*2464 _2537__118
*2465 _2271__119
*2466 _2263__122
*2467 _2257__124
*2468 _2401__126
*2469 _2395__128
*2470 _2390__130
*2471 _2385__132
*2472 _2378__134
*2473 _2371__136
*2474 _2365__138
*2475 _2360__140
*2476 _2353__142
*2477 _2346__144
*2478 _2340__146
*2479 _2436__148
*2480 _2540__150
*2481 _2170__151
*2482 _2169__154
*2483 _2167__156
*2484 _2163__158
*2485 _2182__160
*2486 _2160__162
*2487 _2187__164
*2488 _2189__167
*2489 _2151__169
*2490 _2146__171
*2491 _2141__173
*2492 _2135__175
*2493 _2212__177
*2494 _2209__179
*2495 _2202__181
*2496 _2204__183
*2497 _2121__185
*2498 _2116__188
*2499 _2111__191
*2500 _2106__193
*2501 _2094__195
*2502 _2088__198
*2503 _2084__200
*2504 _2081__203
*2505 _2051__205
*2506 _2046__207
*2507 _2040__210
*2508 _2036__212
*2509 _2032__214
*2510 _2025__217
*2511 _2029__219
*2512 _2022__221
*2513 _1973__223
*2514 _1971__225
*2515 _1966__227
*2516 _1962__229
*2517 _1957__231
*2518 _1953__233
*2519 _1947__235
*2520 _1945__238
*2521 _1934__240
*2522 _1926__242
*2523 _1918__244
*2524 _1921__246
*2525 _1903__248
*2526 _1899__250
*2527 _1895__252
*2528 _1890__254
*2529 _1875__256
*2530 _1870__259
*2531 _1864__261
*2532 _1858__263
*2533 _1845__265
*2534 _1840__267
*2535 _1836__269
*2536 _1831__271
*2537 _1826__273
*2538 _1827__275
*2539 _2596__278
*2540 _2593__280
*2541 _2589__282
*2542 _2578__285
*2543 _2581__287
*2544 _2584__289
*2545 _2161__291
*2546 _2181__292
*2547 _2157__293
*2548 _2156__294
*2549 _2188__295
*2550 _2148__296
*2551 _2144__297
*2552 _2138__298
*2553 _2133__299
*2554 _2210__300
*2555 _2207__301
*2556 _2200__302
*2557 _2131__303
*2558 _2118__304
*2559 _2114__305
*2560 _2108__306
*2561 _2103__307
*2562 _2091__308
*2563 _2086__309
*2564 _2082__310
*2565 _2079__311
*2566 _2048__312
*2567 _2043__313
*2568 _2038__314
*2569 _2034__315
*2570 _2030__316
*2571 _2023__317
*2572 _2027__318
*2573 _2020__319
*2574 _2162__320
*2575 _2182__323
*2576 _2158__325
*2577 _2187__328
*2578 _2189__331
*2579 _2147__334
*2580 _2145__336
*2581 _2137__338
*2582 _2134__340
*2583 _2211__342
*2584 _2208__344
*2585 _2201__346
*2586 _2130__348
*2587 _2117__350
*2588 _2113__352
*2589 _2107__354
*2590 _2104__356
*2591 _2090__358
*2592 _2087__360
*2593 _2083__362
*2594 _2080__364
*2595 _2047__366
*2596 _2042__368
*2597 _2039__370
*2598 _2035__372
*2599 _2031__374
*2600 _2024__376
*2601 _2028__378
*2602 _2021__380
*2603 _1969__382
*2604 _1965__383
*2605 _1960__384
*2606 _1946__385
*2607 _1924__386
*2608 _1916__387
*2609 _1919__388
*2610 _1900__389
*2611 _1897__390
*2612 _1892__391
*2613 _1888__392
*2614 _1872__393
*2615 _1867__394
*2616 _1861__395
*2617 _1855__396
*2618 _1842__397
*2619 _1838__398
*2620 _1833__399
*2621 _1829__400
*2622 _2602__401
*2623 _2598__402
*2624 _2594__403
*2625 _2591__404
*2626 _2587__405
*2627 _2576__406
*2628 _2579__407
*2629 _2582__408
*2630 _1871__409
*2631 _1866__411
*2632 _1860__413
*2633 _1854__415
*2634 _1843__417
*2635 _1839__419
*2636 _1834__421
*2637 _1830__423
*2638 _2603__425
*2639 _2597__427
*2640 _2595__429
*2641 _2592__431
*2642 _2588__433
*2643 _2577__435
*2644 _2580__437
*2645 _2583__439
*2646 _2579__441
*2647 PHY_EDGE_ROW_11_Right_11
*2648 PHY_EDGE_ROW_12_Right_12
*2649 PHY_EDGE_ROW_13_Right_13
*2650 PHY_EDGE_ROW_14_Right_14
*2651 PHY_EDGE_ROW_15_Right_15
*2652 PHY_EDGE_ROW_16_Right_16
*2653 PHY_EDGE_ROW_17_Right_17
*2654 PHY_EDGE_ROW_18_Right_18
*2655 PHY_EDGE_ROW_19_Right_19
*2656 PHY_EDGE_ROW_20_Right_20
*2657 PHY_EDGE_ROW_21_Right_21
*2658 PHY_EDGE_ROW_22_Right_22
*2659 PHY_EDGE_ROW_23_Right_23
*2660 PHY_EDGE_ROW_24_Right_24
*2661 PHY_EDGE_ROW_25_Right_25
*2662 PHY_EDGE_ROW_26_Right_26
*2663 PHY_EDGE_ROW_27_Right_27
*2664 PHY_EDGE_ROW_28_Right_28
*2665 PHY_EDGE_ROW_29_Right_29
*2666 PHY_EDGE_ROW_30_Right_30
*2667 PHY_EDGE_ROW_31_Right_31
*2668 PHY_EDGE_ROW_32_Right_32
*2669 PHY_EDGE_ROW_33_Right_33
*2670 PHY_EDGE_ROW_34_Right_34
*2671 PHY_EDGE_ROW_35_Right_35
*2672 PHY_EDGE_ROW_36_Right_36
*2673 PHY_EDGE_ROW_37_Right_37
*2674 PHY_EDGE_ROW_38_Right_38
*2675 PHY_EDGE_ROW_39_Right_39
*2676 PHY_EDGE_ROW_40_Right_40
*2677 PHY_EDGE_ROW_41_Right_41
*2678 PHY_EDGE_ROW_42_Right_42
*2679 PHY_EDGE_ROW_43_Right_43
*2680 PHY_EDGE_ROW_44_Right_44
*2681 PHY_EDGE_ROW_45_Right_45
*2682 PHY_EDGE_ROW_46_Right_46
*2683 PHY_EDGE_ROW_47_Right_47
*2684 PHY_EDGE_ROW_48_Right_48
*2685 PHY_EDGE_ROW_49_Right_49
*2686 PHY_EDGE_ROW_50_Right_50
*2687 PHY_EDGE_ROW_51_Right_51
*2688 PHY_EDGE_ROW_52_Right_52
*2689 PHY_EDGE_ROW_53_Right_53
*2690 PHY_EDGE_ROW_54_Right_54
*2691 PHY_EDGE_ROW_55_Right_55
*2692 PHY_EDGE_ROW_0_Left_56
*2693 PHY_EDGE_ROW_1_Left_57
*2694 PHY_EDGE_ROW_2_Left_58
*2695 PHY_EDGE_ROW_3_Left_59
*2696 PHY_EDGE_ROW_4_Left_60
*2697 PHY_EDGE_ROW_5_Left_61
*2698 PHY_EDGE_ROW_6_Left_62
*2699 PHY_EDGE_ROW_7_Left_63
*2700 PHY_EDGE_ROW_8_Left_64
*2701 PHY_EDGE_ROW_9_Left_65
*2702 PHY_EDGE_ROW_10_Left_66
*2703 PHY_EDGE_ROW_11_Left_67
*2704 PHY_EDGE_ROW_12_Left_68
*2705 PHY_EDGE_ROW_13_Left_69
*2706 PHY_EDGE_ROW_14_Left_70
*2707 PHY_EDGE_ROW_15_Left_71
*2708 PHY_EDGE_ROW_16_Left_72
*2709 PHY_EDGE_ROW_17_Left_73
*2710 PHY_EDGE_ROW_18_Left_74
*2711 PHY_EDGE_ROW_19_Left_75
*2712 PHY_EDGE_ROW_20_Left_76
*2713 PHY_EDGE_ROW_21_Left_77
*2714 PHY_EDGE_ROW_22_Left_78
*2715 PHY_EDGE_ROW_23_Left_79
*2716 PHY_EDGE_ROW_24_Left_80
*2717 PHY_EDGE_ROW_25_Left_81
*2718 PHY_EDGE_ROW_26_Left_82
*2719 PHY_EDGE_ROW_27_Left_83
*2720 PHY_EDGE_ROW_28_Left_84
*2721 PHY_EDGE_ROW_29_Left_85
*2722 PHY_EDGE_ROW_30_Left_86
*2723 PHY_EDGE_ROW_31_Left_87
*2724 PHY_EDGE_ROW_32_Left_88
*2725 PHY_EDGE_ROW_33_Left_89
*2726 PHY_EDGE_ROW_34_Left_90
*2727 PHY_EDGE_ROW_35_Left_91
*2728 PHY_EDGE_ROW_36_Left_92
*2729 PHY_EDGE_ROW_37_Left_93
*2730 PHY_EDGE_ROW_38_Left_94
*2731 PHY_EDGE_ROW_39_Left_95
*2732 PHY_EDGE_ROW_40_Left_96
*2733 PHY_EDGE_ROW_41_Left_97
*2734 PHY_EDGE_ROW_42_Left_98
*2735 PHY_EDGE_ROW_43_Left_99
*2736 PHY_EDGE_ROW_44_Left_100
*2737 PHY_EDGE_ROW_45_Left_101
*2738 PHY_EDGE_ROW_46_Left_102
*2739 PHY_EDGE_ROW_47_Left_103
*2740 PHY_EDGE_ROW_48_Left_104
*2741 PHY_EDGE_ROW_49_Left_105
*2742 PHY_EDGE_ROW_50_Left_106
*2743 PHY_EDGE_ROW_51_Left_107
*2744 PHY_EDGE_ROW_52_Left_108
*2745 PHY_EDGE_ROW_53_Left_109
*2746 PHY_EDGE_ROW_54_Left_110
*2747 PHY_EDGE_ROW_55_Left_111
*2748 max_cap1
*2749 max_cap2
*2750 max_cap3
*2751 wire4
*2752 max_cap5
*2753 max_cap6
*2754 _2540__7
*2755 _2272__120
*2756 _2311__121
*2757 _2265__123
*2758 _2405__125
*2759 _2403__127
*2760 _2409__129
*2761 _2412__131
*2762 _2416__133
*2763 _2380__135
*2764 _2372__137
*2765 _2421__139
*2766 _2425__141
*2767 _2355__143
*2768 _2347__145
*2769 _2430__147
*2770 _2539__149
*2771 _2173__152
*2772 _2174__153
*2773 _2175__155
*2774 _2178__157
*2775 _2164__159
*2776 _2183__161
*2777 _2185__163
*2778 _2190__165
*2779 _2191__166
*2780 _2193__168
*2781 _2195__170
*2782 _2155__172
*2783 _2197__174
*2784 _2136__176
*2785 _2222__178
*2786 _2224__180
*2787 _2205__182
*2788 _2214__184
*2789 _2228__186
*2790 _2229__187
*2791 _2121__189
*2792 _2227__190
*2793 _2123__192
*2794 _2125__194
*2795 _2101__196
*2796 _2102__197
*2797 _2089__199
*2798 _2085__201
*2799 _2097__202
*2800 _2127__204
*2801 _2075__206
*2802 _2052__208
*2803 _2077__209
*2804 _2058__211
*2805 _2037__213
*2806 _2033__215
*2807 _2071__216
*2808 _2068__218
*2809 _2065__220
*2810 _2026__222
*2811 _1974__224
*2812 _1975__226
*2813 _1977__228
*2814 _1979__230
*2815 _1964__232
*2816 _1955__234
*2817 _1948__236
*2818 _1982__237
*2819 _1984__239
*2820 _1985__241
*2821 _1929__243
*2822 _1922__245
*2823 _1938__247
*2824 _1913__249
*2825 _1907__251
*2826 _1908__253
*2827 _1891__255
*2828 _1989__257
*2829 _1990__258
*2830 _1877__260
*2831 _1879__262
*2832 _1859__264
*2833 _1883__266
*2834 _1841__268
*2835 _1849__270
*2836 _1832__272
*2837 _2604__274
*2838 _2601__276
*2839 _2605__277
*2840 _2612__279
*2841 _2609__281
*2842 _2590__283
*2843 _2624__284
*2844 _2621__286
*2845 _2585__288
*2846 _2616__290
*2847 _2163__321
*2848 _2164__322
*2849 _2183__324
*2850 _2159__326
*2851 _2185__327
*2852 _2190__329
*2853 _2191__330
*2854 _2191__332
*2855 _2193__333
*2856 _2150__335
*2857 _2153__337
*2858 _2140__339
*2859 _2142__341
*2860 _2220__343
*2861 _2218__345
*2862 _2215__347
*2863 _2203__349
*2864 _2120__351
*2865 _2115__353
*2866 _2110__355
*2867 _2105__357
*2868 _2093__359
*2869 _2095__361
*2870 _2098__363
*2871 _2128__365
*2872 _2050__367
*2873 _2045__369
*2874 _2057__371
*2875 _2055__373
*2876 _2070__375
*2877 _2069__377
*2878 _2064__379
*2879 _2067__381
*2880 _1874__410
*2881 _1869__412
*2882 _1863__414
*2883 _1857__416
*2884 _1844__418
*2885 _1847__420
*2886 _1835__422
*2887 _1852__424
*2888 _2605__426
*2889 _2600__428
*2890 _2610__430
*2891 _2613__432
*2892 _2622__434
*2893 _2625__436
*2894 _2617__438
*2895 _2619__440
*2896 _1974__505
*2897 _2173__508
*2898 _2174__509
*2899 _2010__520
*2900 _2009__523
*2901 _1997__527
*2902 clkbuf_2_0__f_clk
*2903 clkbuf_2_1__f_clk
*2904 clkbuf_2_2__f_clk
*2905 clkbuf_2_3__f_clk
*2906 clkload0
*2907 clkload1
*2908 clkload2
*2909 FILLER_0_1
*2910 FILLER_0_33
*2911 FILLER_0_49
*2912 FILLER_0_57
*2913 FILLER_0_60
*2914 FILLER_0_92
*2915 FILLER_0_108
*2916 FILLER_0_112
*2917 FILLER_0_117
*2918 FILLER_0_119
*2919 FILLER_0_122
*2920 FILLER_0_154
*2921 FILLER_0_186
*2922 FILLER_0_202
*2923 FILLER_0_210
*2924 FILLER_0_214
*2925 FILLER_0_218
*2926 FILLER_0_222
*2927 FILLER_0_230
*2928 FILLER_0_234
*2929 FILLER_0_238
*2930 FILLER_0_246
*2931 FILLER_0_248
*2932 FILLER_0_252
*2933 FILLER_0_268
*2934 FILLER_0_272
*2935 FILLER_0_276
*2936 FILLER_0_280
*2937 FILLER_0_296
*2938 FILLER_0_304
*2939 FILLER_0_307
*2940 FILLER_0_323
*2941 FILLER_0_326
*2942 FILLER_0_330
*2943 FILLER_0_338
*2944 FILLER_0_342
*2945 FILLER_0_345
*2946 FILLER_0_361
*2947 FILLER_0_367
*2948 FILLER_0_383
*2949 FILLER_0_391
*2950 FILLER_0_395
*2951 FILLER_0_398
*2952 FILLER_0_406
*2953 FILLER_0_412
*2954 FILLER_0_416
*2955 FILLER_0_418
*2956 FILLER_1_1
*2957 FILLER_1_17
*2958 FILLER_1_25
*2959 FILLER_1_28
*2960 FILLER_1_44
*2961 FILLER_1_46
*2962 FILLER_1_49
*2963 FILLER_1_58
*2964 FILLER_1_68
*2965 FILLER_1_72
*2966 FILLER_1_76
*2967 FILLER_1_78
*2968 FILLER_1_86
*2969 FILLER_1_90
*2970 FILLER_1_98
*2971 FILLER_1_102
*2972 FILLER_1_104
*2973 FILLER_1_107
*2974 FILLER_1_115
*2975 FILLER_1_121
*2976 FILLER_1_132
*2977 FILLER_1_138
*2978 FILLER_1_142
*2979 FILLER_1_151
*2980 FILLER_1_159
*2981 FILLER_1_165
*2982 FILLER_1_169
*2983 FILLER_1_178
*2984 FILLER_1_182
*2985 FILLER_1_186
*2986 FILLER_1_193
*2987 FILLER_1_201
*2988 FILLER_1_204
*2989 FILLER_1_212
*2990 FILLER_1_224
*2991 FILLER_1_228
*2992 FILLER_1_231
*2993 FILLER_1_239
*2994 FILLER_1_241
*2995 FILLER_1_247
*2996 FILLER_1_257
*2997 FILLER_1_265
*2998 FILLER_1_271
*2999 FILLER_1_279
*3000 FILLER_1_284
*3001 FILLER_1_288
*3002 FILLER_1_291
*3003 FILLER_1_296
*3004 FILLER_1_304
*3005 FILLER_1_312
*3006 FILLER_1_316
*3007 FILLER_1_318
*3008 FILLER_1_321
*3009 FILLER_1_333
*3010 FILLER_1_335
*3011 FILLER_1_338
*3012 FILLER_1_346
*3013 FILLER_1_354
*3014 FILLER_1_358
*3015 FILLER_1_368
*3016 FILLER_1_372
*3017 FILLER_1_404
*3018 FILLER_1_412
*3019 FILLER_1_416
*3020 FILLER_1_418
*3021 FILLER_2_1
*3022 FILLER_2_33
*3023 FILLER_2_37
*3024 FILLER_2_41
*3025 FILLER_2_73
*3026 FILLER_2_77
*3027 FILLER_2_80
*3028 FILLER_2_84
*3029 FILLER_2_88
*3030 FILLER_2_96
*3031 FILLER_2_100
*3032 FILLER_2_108
*3033 FILLER_2_124
*3034 FILLER_2_130
*3035 FILLER_2_146
*3036 FILLER_2_154
*3037 FILLER_2_158
*3038 FILLER_2_190
*3039 FILLER_2_194
*3040 FILLER_2_199
*3041 FILLER_2_205
*3042 FILLER_2_209
*3043 FILLER_2_212
*3044 FILLER_2_230
*3045 FILLER_2_262
*3046 FILLER_2_270
*3047 FILLER_2_273
*3048 FILLER_2_278
*3049 FILLER_2_286
*3050 FILLER_2_290
*3051 FILLER_2_322
*3052 FILLER_2_326
*3053 FILLER_2_329
*3054 FILLER_2_339
*3055 FILLER_2_355
*3056 FILLER_2_363
*3057 FILLER_2_368
*3058 FILLER_2_372
*3059 FILLER_2_388
*3060 FILLER_2_390
*3061 FILLER_2_393
*3062 FILLER_2_409
*3063 FILLER_2_417
*3064 FILLER_3_1
*3065 FILLER_3_5
*3066 FILLER_3_37
*3067 FILLER_3_69
*3068 FILLER_3_73
*3069 FILLER_3_77
*3070 FILLER_3_93
*3071 FILLER_3_97
*3072 FILLER_3_129
*3073 FILLER_3_145
*3074 FILLER_3_156
*3075 FILLER_3_164
*3076 FILLER_3_167
*3077 FILLER_3_174
*3078 FILLER_3_190
*3079 FILLER_3_197
*3080 FILLER_3_205
*3081 FILLER_3_237
*3082 FILLER_3_269
*3083 FILLER_3_277
*3084 FILLER_3_309
*3085 FILLER_3_325
*3086 FILLER_3_333
*3087 FILLER_3_339
*3088 FILLER_3_343
*3089 FILLER_3_359
*3090 FILLER_3_367
*3091 FILLER_3_371
*3092 FILLER_3_387
*3093 FILLER_3_391
*3094 FILLER_3_399
*3095 FILLER_3_413
*3096 FILLER_3_417
*3097 FILLER_4_1
*3098 FILLER_4_5
*3099 FILLER_4_16
*3100 FILLER_4_24
*3101 FILLER_4_42
*3102 FILLER_4_50
*3103 FILLER_4_54
*3104 FILLER_4_61
*3105 FILLER_4_63
*3106 FILLER_4_67
*3107 FILLER_4_75
*3108 FILLER_4_80
*3109 FILLER_4_88
*3110 FILLER_4_90
*3111 FILLER_4_104
*3112 FILLER_4_112
*3113 FILLER_4_114
*3114 FILLER_4_128
*3115 FILLER_4_132
*3116 FILLER_4_140
*3117 FILLER_4_145
*3118 FILLER_4_147
*3119 FILLER_4_154
*3120 FILLER_4_159
*3121 FILLER_4_165
*3122 FILLER_4_180
*3123 FILLER_4_212
*3124 FILLER_4_216
*3125 FILLER_4_223
*3126 FILLER_4_227
*3127 FILLER_4_234
*3128 FILLER_4_240
*3129 FILLER_4_244
*3130 FILLER_4_246
*3131 FILLER_4_251
*3132 FILLER_4_263
*3133 FILLER_4_279
*3134 FILLER_4_287
*3135 FILLER_4_291
*3136 FILLER_4_298
*3137 FILLER_4_306
*3138 FILLER_4_310
*3139 FILLER_4_312
*3140 FILLER_4_315
*3141 FILLER_4_320
*3142 FILLER_4_328
*3143 FILLER_4_336
*3144 FILLER_4_338
*3145 FILLER_4_345
*3146 FILLER_4_349
*3147 FILLER_4_351
*3148 FILLER_4_356
*3149 FILLER_4_368
*3150 FILLER_4_400
*3151 FILLER_4_408
*3152 FILLER_4_412
*3153 FILLER_4_414
*3154 FILLER_4_417
*3155 FILLER_5_1
*3156 FILLER_5_33
*3157 FILLER_5_54
*3158 FILLER_5_86
*3159 FILLER_5_90
*3160 FILLER_5_92
*3161 FILLER_5_98
*3162 FILLER_5_117
*3163 FILLER_5_125
*3164 FILLER_5_141
*3165 FILLER_5_143
*3166 FILLER_5_146
*3167 FILLER_5_162
*3168 FILLER_5_166
*3169 FILLER_5_168
*3170 FILLER_5_171
*3171 FILLER_5_187
*3172 FILLER_5_191
*3173 FILLER_5_195
*3174 FILLER_5_199
*3175 FILLER_5_202
*3176 FILLER_5_206
*3177 FILLER_5_214
*3178 FILLER_5_218
*3179 FILLER_5_222
*3180 FILLER_5_226
*3181 FILLER_5_234
*3182 FILLER_5_240
*3183 FILLER_5_246
*3184 FILLER_5_254
*3185 FILLER_5_270
*3186 FILLER_5_274
*3187 FILLER_5_280
*3188 FILLER_5_284
*3189 FILLER_5_292
*3190 FILLER_5_296
*3191 FILLER_5_300
*3192 FILLER_5_308
*3193 FILLER_5_312
*3194 FILLER_5_314
*3195 FILLER_5_317
*3196 FILLER_5_323
*3197 FILLER_5_327
*3198 FILLER_5_335
*3199 FILLER_5_338
*3200 FILLER_5_343
*3201 FILLER_5_350
*3202 FILLER_5_366
*3203 FILLER_5_370
*3204 FILLER_5_382
*3205 FILLER_5_386
*3206 FILLER_5_389
*3207 FILLER_5_394
*3208 FILLER_5_400
*3209 FILLER_5_416
*3210 FILLER_5_418
*3211 FILLER_6_1
*3212 FILLER_6_5
*3213 FILLER_6_13
*3214 FILLER_6_17
*3215 FILLER_6_22
*3216 FILLER_6_28
*3217 FILLER_6_36
*3218 FILLER_6_43
*3219 FILLER_6_51
*3220 FILLER_6_83
*3221 FILLER_6_91
*3222 FILLER_6_95
*3223 FILLER_6_100
*3224 FILLER_6_132
*3225 FILLER_6_164
*3226 FILLER_6_176
*3227 FILLER_6_184
*3228 FILLER_6_188
*3229 FILLER_6_190
*3230 FILLER_6_193
*3231 FILLER_6_202
*3232 FILLER_6_218
*3233 FILLER_6_224
*3234 FILLER_6_228
*3235 FILLER_6_244
*3236 FILLER_6_248
*3237 FILLER_6_251
*3238 FILLER_6_267
*3239 FILLER_6_273
*3240 FILLER_6_281
*3241 FILLER_6_289
*3242 FILLER_6_295
*3243 FILLER_6_304
*3244 FILLER_6_308
*3245 FILLER_6_311
*3246 FILLER_6_321
*3247 FILLER_6_353
*3248 FILLER_6_361
*3249 FILLER_6_363
*3250 FILLER_6_369
*3251 FILLER_6_373
*3252 FILLER_6_377
*3253 FILLER_6_381
*3254 FILLER_6_397
*3255 FILLER_6_405
*3256 FILLER_6_411
*3257 FILLER_6_417
*3258 FILLER_7_1
*3259 FILLER_7_12
*3260 FILLER_7_16
*3261 FILLER_7_23
*3262 FILLER_7_31
*3263 FILLER_7_35
*3264 FILLER_7_38
*3265 FILLER_7_54
*3266 FILLER_7_62
*3267 FILLER_7_66
*3268 FILLER_7_69
*3269 FILLER_7_78
*3270 FILLER_7_94
*3271 FILLER_7_104
*3272 FILLER_7_108
*3273 FILLER_7_111
*3274 FILLER_7_119
*3275 FILLER_7_121
*3276 FILLER_7_126
*3277 FILLER_7_128
*3278 FILLER_7_131
*3279 FILLER_7_147
*3280 FILLER_7_155
*3281 FILLER_7_175
*3282 FILLER_7_181
*3283 FILLER_7_203
*3284 FILLER_7_211
*3285 FILLER_7_215
*3286 FILLER_7_222
*3287 FILLER_7_224
*3288 FILLER_7_231
*3289 FILLER_7_263
*3290 FILLER_7_295
*3291 FILLER_7_311
*3292 FILLER_7_319
*3293 FILLER_7_323
*3294 FILLER_7_339
*3295 FILLER_7_345
*3296 FILLER_7_361
*3297 FILLER_7_365
*3298 FILLER_7_367
*3299 FILLER_7_370
*3300 FILLER_7_378
*3301 FILLER_7_382
*3302 FILLER_7_385
*3303 FILLER_7_395
*3304 FILLER_7_411
*3305 FILLER_8_1
*3306 FILLER_8_5
*3307 FILLER_8_37
*3308 FILLER_8_45
*3309 FILLER_8_50
*3310 FILLER_8_54
*3311 FILLER_8_75
*3312 FILLER_8_91
*3313 FILLER_8_97
*3314 FILLER_8_119
*3315 FILLER_8_129
*3316 FILLER_8_131
*3317 FILLER_8_135
*3318 FILLER_8_139
*3319 FILLER_8_147
*3320 FILLER_8_163
*3321 FILLER_8_165
*3322 FILLER_8_170
*3323 FILLER_8_186
*3324 FILLER_8_190
*3325 FILLER_8_192
*3326 FILLER_8_195
*3327 FILLER_8_211
*3328 FILLER_8_219
*3329 FILLER_8_223
*3330 FILLER_8_225
*3331 FILLER_8_230
*3332 FILLER_8_238
*3333 FILLER_8_244
*3334 FILLER_8_250
*3335 FILLER_8_255
*3336 FILLER_8_263
*3337 FILLER_8_267
*3338 FILLER_8_269
*3339 FILLER_8_272
*3340 FILLER_8_280
*3341 FILLER_8_288
*3342 FILLER_8_292
*3343 FILLER_8_294
*3344 FILLER_8_297
*3345 FILLER_8_301
*3346 FILLER_8_303
*3347 FILLER_8_306
*3348 FILLER_8_314
*3349 FILLER_8_316
*3350 FILLER_8_323
*3351 FILLER_8_328
*3352 FILLER_8_336
*3353 FILLER_8_344
*3354 FILLER_8_352
*3355 FILLER_8_354
*3356 FILLER_8_357
*3357 FILLER_8_362
*3358 FILLER_8_367
*3359 FILLER_8_372
*3360 FILLER_8_380
*3361 FILLER_8_387
*3362 FILLER_8_395
*3363 FILLER_8_399
*3364 FILLER_8_405
*3365 FILLER_8_413
*3366 FILLER_8_417
*3367 FILLER_9_1
*3368 FILLER_9_7
*3369 FILLER_9_23
*3370 FILLER_9_27
*3371 FILLER_9_29
*3372 FILLER_9_34
*3373 FILLER_9_42
*3374 FILLER_9_44
*3375 FILLER_9_49
*3376 FILLER_9_57
*3377 FILLER_9_60
*3378 FILLER_9_64
*3379 FILLER_9_80
*3380 FILLER_9_88
*3381 FILLER_9_92
*3382 FILLER_9_94
*3383 FILLER_9_97
*3384 FILLER_9_129
*3385 FILLER_9_137
*3386 FILLER_9_143
*3387 FILLER_9_159
*3388 FILLER_9_167
*3389 FILLER_9_173
*3390 FILLER_9_189
*3391 FILLER_9_193
*3392 FILLER_9_199
*3393 FILLER_9_231
*3394 FILLER_9_239
*3395 FILLER_9_247
*3396 FILLER_9_253
*3397 FILLER_9_269
*3398 FILLER_9_273
*3399 FILLER_9_278
*3400 FILLER_9_286
*3401 FILLER_9_290
*3402 FILLER_9_305
*3403 FILLER_9_313
*3404 FILLER_9_321
*3405 FILLER_9_329
*3406 FILLER_9_331
*3407 FILLER_9_334
*3408 FILLER_9_350
*3409 FILLER_9_353
*3410 FILLER_9_361
*3411 FILLER_9_365
*3412 FILLER_9_369
*3413 FILLER_9_385
*3414 FILLER_9_389
*3415 FILLER_9_391
*3416 FILLER_9_394
*3417 FILLER_9_402
*3418 FILLER_9_412
*3419 FILLER_9_414
*3420 FILLER_9_417
*3421 FILLER_10_1
*3422 FILLER_10_5
*3423 FILLER_10_9
*3424 FILLER_10_14
*3425 FILLER_10_49
*3426 FILLER_10_65
*3427 FILLER_10_73
*3428 FILLER_10_76
*3429 FILLER_10_80
*3430 FILLER_10_96
*3431 FILLER_10_100
*3432 FILLER_10_116
*3433 FILLER_10_124
*3434 FILLER_10_127
*3435 FILLER_10_159
*3436 FILLER_10_163
*3437 FILLER_10_166
*3438 FILLER_10_170
*3439 FILLER_10_175
*3440 FILLER_10_191
*3441 FILLER_10_205
*3442 FILLER_10_209
*3443 FILLER_10_217
*3444 FILLER_10_225
*3445 FILLER_10_241
*3446 FILLER_10_249
*3447 FILLER_10_253
*3448 FILLER_10_258
*3449 FILLER_10_266
*3450 FILLER_10_283
*3451 FILLER_10_287
*3452 FILLER_10_293
*3453 FILLER_10_301
*3454 FILLER_10_305
*3455 FILLER_10_313
*3456 FILLER_10_329
*3457 FILLER_10_337
*3458 FILLER_10_339
*3459 FILLER_10_346
*3460 FILLER_10_378
*3461 FILLER_10_410
*3462 FILLER_10_418
*3463 FILLER_11_1
*3464 FILLER_11_9
*3465 FILLER_11_11
*3466 FILLER_11_15
*3467 FILLER_11_31
*3468 FILLER_11_39
*3469 FILLER_11_43
*3470 FILLER_11_59
*3471 FILLER_11_67
*3472 FILLER_11_71
*3473 FILLER_11_79
*3474 FILLER_11_81
*3475 FILLER_11_84
*3476 FILLER_11_94
*3477 FILLER_11_98
*3478 FILLER_11_114
*3479 FILLER_11_119
*3480 FILLER_11_125
*3481 FILLER_11_129
*3482 FILLER_11_133
*3483 FILLER_11_138
*3484 FILLER_11_145
*3485 FILLER_11_153
*3486 FILLER_11_185
*3487 FILLER_11_193
*3488 FILLER_11_197
*3489 FILLER_11_201
*3490 FILLER_11_233
*3491 FILLER_11_241
*3492 FILLER_11_243
*3493 FILLER_11_250
*3494 FILLER_11_254
*3495 FILLER_11_270
*3496 FILLER_11_274
*3497 FILLER_11_279
*3498 FILLER_11_287
*3499 FILLER_11_291
*3500 FILLER_11_301
*3501 FILLER_11_317
*3502 FILLER_11_325
*3503 FILLER_11_328
*3504 FILLER_11_332
*3505 FILLER_11_348
*3506 FILLER_11_356
*3507 FILLER_11_366
*3508 FILLER_11_371
*3509 FILLER_11_375
*3510 FILLER_11_379
*3511 FILLER_11_386
*3512 FILLER_11_394
*3513 FILLER_11_398
*3514 FILLER_11_406
*3515 FILLER_11_414
*3516 FILLER_11_418
*3517 FILLER_12_1
*3518 FILLER_12_9
*3519 FILLER_12_14
*3520 FILLER_12_30
*3521 FILLER_12_37
*3522 FILLER_12_43
*3523 FILLER_12_47
*3524 FILLER_12_49
*3525 FILLER_12_52
*3526 FILLER_12_56
*3527 FILLER_12_63
*3528 FILLER_12_71
*3529 FILLER_12_75
*3530 FILLER_12_77
*3531 FILLER_12_81
*3532 FILLER_12_85
*3533 FILLER_12_88
*3534 FILLER_12_92
*3535 FILLER_12_94
*3536 FILLER_12_98
*3537 FILLER_12_114
*3538 FILLER_12_118
*3539 FILLER_12_124
*3540 FILLER_12_140
*3541 FILLER_12_144
*3542 FILLER_12_146
*3543 FILLER_12_149
*3544 FILLER_12_165
*3545 FILLER_12_177
*3546 FILLER_12_181
*3547 FILLER_12_189
*3548 FILLER_12_193
*3549 FILLER_12_198
*3550 FILLER_12_206
*3551 FILLER_12_208
*3552 FILLER_12_211
*3553 FILLER_12_213
*3554 FILLER_12_216
*3555 FILLER_12_220
*3556 FILLER_12_230
*3557 FILLER_12_236
*3558 FILLER_12_248
*3559 FILLER_12_280
*3560 FILLER_12_296
*3561 FILLER_12_298
*3562 FILLER_12_303
*3563 FILLER_12_307
*3564 FILLER_12_329
*3565 FILLER_12_337
*3566 FILLER_12_353
*3567 FILLER_12_357
*3568 FILLER_12_365
*3569 FILLER_12_369
*3570 FILLER_12_376
*3571 FILLER_12_380
*3572 FILLER_12_383
*3573 FILLER_12_391
*3574 FILLER_12_393
*3575 FILLER_12_396
*3576 FILLER_12_404
*3577 FILLER_12_408
*3578 FILLER_12_412
*3579 FILLER_12_414
*3580 FILLER_12_417
*3581 FILLER_13_1
*3582 FILLER_13_9
*3583 FILLER_13_11
*3584 FILLER_13_14
*3585 FILLER_13_43
*3586 FILLER_13_75
*3587 FILLER_13_91
*3588 FILLER_13_98
*3589 FILLER_13_100
*3590 FILLER_13_105
*3591 FILLER_13_121
*3592 FILLER_13_123
*3593 FILLER_13_126
*3594 FILLER_13_134
*3595 FILLER_13_138
*3596 FILLER_13_145
*3597 FILLER_13_153
*3598 FILLER_13_169
*3599 FILLER_13_177
*3600 FILLER_13_179
*3601 FILLER_13_183
*3602 FILLER_13_187
*3603 FILLER_13_193
*3604 FILLER_13_197
*3605 FILLER_13_199
*3606 FILLER_13_220
*3607 FILLER_13_226
*3608 FILLER_13_258
*3609 FILLER_13_264
*3610 FILLER_13_271
*3611 FILLER_13_287
*3612 FILLER_13_295
*3613 FILLER_13_299
*3614 FILLER_13_303
*3615 FILLER_13_309
*3616 FILLER_13_325
*3617 FILLER_13_335
*3618 FILLER_13_343
*3619 FILLER_13_356
*3620 FILLER_13_388
*3621 FILLER_13_404
*3622 FILLER_13_412
*3623 FILLER_13_416
*3624 FILLER_13_418
*3625 FILLER_14_1
*3626 FILLER_14_23
*3627 FILLER_14_55
*3628 FILLER_14_59
*3629 FILLER_14_62
*3630 FILLER_14_78
*3631 FILLER_14_83
*3632 FILLER_14_99
*3633 FILLER_14_107
*3634 FILLER_14_111
*3635 FILLER_14_113
*3636 FILLER_14_119
*3637 FILLER_14_135
*3638 FILLER_14_143
*3639 FILLER_14_145
*3640 FILLER_14_148
*3641 FILLER_14_156
*3642 FILLER_14_160
*3643 FILLER_14_167
*3644 FILLER_14_183
*3645 FILLER_14_193
*3646 FILLER_14_209
*3647 FILLER_14_211
*3648 FILLER_14_214
*3649 FILLER_14_246
*3650 FILLER_14_250
*3651 FILLER_14_257
*3652 FILLER_14_273
*3653 FILLER_14_283
*3654 FILLER_14_291
*3655 FILLER_14_293
*3656 FILLER_14_303
*3657 FILLER_14_309
*3658 FILLER_14_317
*3659 FILLER_14_321
*3660 FILLER_14_329
*3661 FILLER_14_334
*3662 FILLER_14_342
*3663 FILLER_14_346
*3664 FILLER_14_348
*3665 FILLER_14_356
*3666 FILLER_14_360
*3667 FILLER_14_368
*3668 FILLER_14_373
*3669 FILLER_14_375
*3670 FILLER_14_378
*3671 FILLER_14_382
*3672 FILLER_14_393
*3673 FILLER_14_409
*3674 FILLER_14_413
*3675 FILLER_14_417
*3676 FILLER_15_1
*3677 FILLER_15_36
*3678 FILLER_15_40
*3679 FILLER_15_42
*3680 FILLER_15_45
*3681 FILLER_15_53
*3682 FILLER_15_57
*3683 FILLER_15_64
*3684 FILLER_15_69
*3685 FILLER_15_77
*3686 FILLER_15_85
*3687 FILLER_15_106
*3688 FILLER_15_118
*3689 FILLER_15_122
*3690 FILLER_15_128
*3691 FILLER_15_146
*3692 FILLER_15_178
*3693 FILLER_15_186
*3694 FILLER_15_190
*3695 FILLER_15_198
*3696 FILLER_15_230
*3697 FILLER_15_238
*3698 FILLER_15_243
*3699 FILLER_15_251
*3700 FILLER_15_255
*3701 FILLER_15_257
*3702 FILLER_15_260
*3703 FILLER_15_292
*3704 FILLER_15_324
*3705 FILLER_15_328
*3706 FILLER_15_344
*3707 FILLER_15_356
*3708 FILLER_15_364
*3709 FILLER_15_370
*3710 FILLER_15_374
*3711 FILLER_15_382
*3712 FILLER_15_388
*3713 FILLER_15_397
*3714 FILLER_15_403
*3715 FILLER_15_416
*3716 FILLER_15_418
*3717 FILLER_16_1
*3718 FILLER_16_5
*3719 FILLER_16_21
*3720 FILLER_16_29
*3721 FILLER_16_34
*3722 FILLER_16_66
*3723 FILLER_16_74
*3724 FILLER_16_76
*3725 FILLER_16_79
*3726 FILLER_16_87
*3727 FILLER_16_90
*3728 FILLER_16_122
*3729 FILLER_16_130
*3730 FILLER_16_132
*3731 FILLER_16_153
*3732 FILLER_16_161
*3733 FILLER_16_165
*3734 FILLER_16_173
*3735 FILLER_16_181
*3736 FILLER_16_185
*3737 FILLER_16_192
*3738 FILLER_16_197
*3739 FILLER_16_207
*3740 FILLER_16_211
*3741 FILLER_16_213
*3742 FILLER_16_221
*3743 FILLER_16_225
*3744 FILLER_16_233
*3745 FILLER_16_239
*3746 FILLER_16_243
*3747 FILLER_16_248
*3748 FILLER_16_252
*3749 FILLER_16_256
*3750 FILLER_16_263
*3751 FILLER_16_271
*3752 FILLER_16_276
*3753 FILLER_16_284
*3754 FILLER_16_288
*3755 FILLER_16_292
*3756 FILLER_16_303
*3757 FILLER_16_307
*3758 FILLER_16_309
*3759 FILLER_16_314
*3760 FILLER_16_318
*3761 FILLER_16_321
*3762 FILLER_16_329
*3763 FILLER_16_336
*3764 FILLER_16_352
*3765 FILLER_16_356
*3766 FILLER_16_358
*3767 FILLER_16_361
*3768 FILLER_16_365
*3769 FILLER_16_381
*3770 FILLER_16_385
*3771 FILLER_16_389
*3772 FILLER_16_395
*3773 FILLER_16_403
*3774 FILLER_16_407
*3775 FILLER_16_412
*3776 FILLER_16_416
*3777 FILLER_16_418
*3778 FILLER_17_1
*3779 FILLER_17_5
*3780 FILLER_17_7
*3781 FILLER_17_15
*3782 FILLER_17_23
*3783 FILLER_17_37
*3784 FILLER_17_41
*3785 FILLER_17_73
*3786 FILLER_17_89
*3787 FILLER_17_97
*3788 FILLER_17_113
*3789 FILLER_17_123
*3790 FILLER_17_127
*3791 FILLER_17_129
*3792 FILLER_17_133
*3793 FILLER_17_135
*3794 FILLER_17_138
*3795 FILLER_17_142
*3796 FILLER_17_145
*3797 FILLER_17_168
*3798 FILLER_17_184
*3799 FILLER_17_191
*3800 FILLER_17_198
*3801 FILLER_17_230
*3802 FILLER_17_238
*3803 FILLER_17_240
*3804 FILLER_17_243
*3805 FILLER_17_259
*3806 FILLER_17_263
*3807 FILLER_17_266
*3808 FILLER_17_282
*3809 FILLER_17_294
*3810 FILLER_17_300
*3811 FILLER_17_304
*3812 FILLER_17_312
*3813 FILLER_17_316
*3814 FILLER_17_320
*3815 FILLER_17_336
*3816 FILLER_17_339
*3817 FILLER_17_347
*3818 FILLER_17_352
*3819 FILLER_17_362
*3820 FILLER_17_366
*3821 FILLER_17_369
*3822 FILLER_17_376
*3823 FILLER_17_408
*3824 FILLER_17_416
*3825 FILLER_17_418
*3826 FILLER_18_1
*3827 FILLER_18_33
*3828 FILLER_18_37
*3829 FILLER_18_53
*3830 FILLER_18_61
*3831 FILLER_18_65
*3832 FILLER_18_69
*3833 FILLER_18_77
*3834 FILLER_18_81
*3835 FILLER_18_85
*3836 FILLER_18_89
*3837 FILLER_18_93
*3838 FILLER_18_101
*3839 FILLER_18_105
*3840 FILLER_18_110
*3841 FILLER_18_116
*3842 FILLER_18_132
*3843 FILLER_18_140
*3844 FILLER_18_144
*3845 FILLER_18_148
*3846 FILLER_18_156
*3847 FILLER_18_160
*3848 FILLER_18_176
*3849 FILLER_18_186
*3850 FILLER_18_190
*3851 FILLER_18_194
*3852 FILLER_18_226
*3853 FILLER_18_234
*3854 FILLER_18_244
*3855 FILLER_18_250
*3856 FILLER_18_266
*3857 FILLER_18_268
*3858 FILLER_18_271
*3859 FILLER_18_279
*3860 FILLER_18_283
*3861 FILLER_18_287
*3862 FILLER_18_303
*3863 FILLER_18_307
*3864 FILLER_18_313
*3865 FILLER_18_319
*3866 FILLER_18_321
*3867 FILLER_18_324
*3868 FILLER_18_328
*3869 FILLER_18_336
*3870 FILLER_18_338
*3871 FILLER_18_341
*3872 FILLER_18_345
*3873 FILLER_18_353
*3874 FILLER_18_357
*3875 FILLER_18_361
*3876 FILLER_18_363
*3877 FILLER_18_374
*3878 FILLER_18_378
*3879 FILLER_18_385
*3880 FILLER_18_396
*3881 FILLER_18_412
*3882 FILLER_18_415
*3883 FILLER_19_1
*3884 FILLER_19_33
*3885 FILLER_19_40
*3886 FILLER_19_60
*3887 FILLER_19_62
*3888 FILLER_19_67
*3889 FILLER_19_75
*3890 FILLER_19_97
*3891 FILLER_19_113
*3892 FILLER_19_116
*3893 FILLER_19_132
*3894 FILLER_19_136
*3895 FILLER_19_144
*3896 FILLER_19_148
*3897 FILLER_19_156
*3898 FILLER_19_161
*3899 FILLER_19_169
*3900 FILLER_19_173
*3901 FILLER_19_194
*3902 FILLER_19_201
*3903 FILLER_19_210
*3904 FILLER_19_218
*3905 FILLER_19_226
*3906 FILLER_19_230
*3907 FILLER_19_246
*3908 FILLER_19_256
*3909 FILLER_19_264
*3910 FILLER_19_268
*3911 FILLER_19_276
*3912 FILLER_19_282
*3913 FILLER_19_284
*3914 FILLER_19_291
*3915 FILLER_19_298
*3916 FILLER_19_302
*3917 FILLER_19_310
*3918 FILLER_19_314
*3919 FILLER_19_316
*3920 FILLER_19_323
*3921 FILLER_19_328
*3922 FILLER_19_344
*3923 FILLER_19_352
*3924 FILLER_19_356
*3925 FILLER_19_367
*3926 FILLER_19_383
*3927 FILLER_19_386
*3928 FILLER_19_402
*3929 FILLER_19_406
*3930 FILLER_19_414
*3931 FILLER_19_418
*3932 FILLER_20_1
*3933 FILLER_20_3
*3934 FILLER_20_10
*3935 FILLER_20_18
*3936 FILLER_20_24
*3937 FILLER_20_32
*3938 FILLER_20_36
*3939 FILLER_20_44
*3940 FILLER_20_60
*3941 FILLER_20_62
*3942 FILLER_20_67
*3943 FILLER_20_90
*3944 FILLER_20_99
*3945 FILLER_20_107
*3946 FILLER_20_113
*3947 FILLER_20_120
*3948 FILLER_20_128
*3949 FILLER_20_130
*3950 FILLER_20_133
*3951 FILLER_20_137
*3952 FILLER_20_146
*3953 FILLER_20_150
*3954 FILLER_20_158
*3955 FILLER_20_162
*3956 FILLER_20_164
*3957 FILLER_20_167
*3958 FILLER_20_173
*3959 FILLER_20_189
*3960 FILLER_20_193
*3961 FILLER_20_195
*3962 FILLER_20_198
*3963 FILLER_20_202
*3964 FILLER_20_207
*3965 FILLER_20_215
*3966 FILLER_20_219
*3967 FILLER_20_224
*3968 FILLER_20_240
*3969 FILLER_20_244
*3970 FILLER_20_247
*3971 FILLER_20_251
*3972 FILLER_20_259
*3973 FILLER_20_261
*3974 FILLER_20_264
*3975 FILLER_20_266
*3976 FILLER_20_269
*3977 FILLER_20_285
*3978 FILLER_20_293
*3979 FILLER_20_299
*3980 FILLER_20_303
*3981 FILLER_20_319
*3982 FILLER_20_321
*3983 FILLER_20_324
*3984 FILLER_20_356
*3985 FILLER_20_388
*3986 FILLER_20_404
*3987 FILLER_20_412
*3988 FILLER_20_414
*3989 FILLER_20_417
*3990 FILLER_21_1
*3991 FILLER_21_5
*3992 FILLER_21_9
*3993 FILLER_21_13
*3994 FILLER_21_18
*3995 FILLER_21_26
*3996 FILLER_21_30
*3997 FILLER_21_45
*3998 FILLER_21_77
*3999 FILLER_21_81
*4000 FILLER_21_90
*4001 FILLER_21_106
*4002 FILLER_21_114
*4003 FILLER_21_116
*4004 FILLER_21_119
*4005 FILLER_21_135
*4006 FILLER_21_139
*4007 FILLER_21_150
*4008 FILLER_21_159
*4009 FILLER_21_175
*4010 FILLER_21_183
*4011 FILLER_21_187
*4012 FILLER_21_190
*4013 FILLER_21_222
*4014 FILLER_21_226
*4015 FILLER_21_234
*4016 FILLER_21_243
*4017 FILLER_21_259
*4018 FILLER_21_269
*4019 FILLER_21_301
*4020 FILLER_21_323
*4021 FILLER_21_325
*4022 FILLER_21_328
*4023 FILLER_21_342
*4024 FILLER_21_346
*4025 FILLER_21_350
*4026 FILLER_21_358
*4027 FILLER_21_366
*4028 FILLER_21_372
*4029 FILLER_21_374
*4030 FILLER_21_377
*4031 FILLER_21_395
*4032 FILLER_21_403
*4033 FILLER_21_407
*4034 FILLER_21_415
*4035 FILLER_22_1
*4036 FILLER_22_33
*4037 FILLER_22_40
*4038 FILLER_22_72
*4039 FILLER_22_82
*4040 FILLER_22_86
*4041 FILLER_22_90
*4042 FILLER_22_110
*4043 FILLER_22_116
*4044 FILLER_22_122
*4045 FILLER_22_138
*4046 FILLER_22_146
*4047 FILLER_22_162
*4048 FILLER_22_173
*4049 FILLER_22_177
*4050 FILLER_22_179
*4051 FILLER_22_200
*4052 FILLER_22_204
*4053 FILLER_22_208
*4054 FILLER_22_214
*4055 FILLER_22_233
*4056 FILLER_22_237
*4057 FILLER_22_239
*4058 FILLER_22_242
*4059 FILLER_22_250
*4060 FILLER_22_258
*4061 FILLER_22_262
*4062 FILLER_22_269
*4063 FILLER_22_277
*4064 FILLER_22_281
*4065 FILLER_22_288
*4066 FILLER_22_296
*4067 FILLER_22_300
*4068 FILLER_22_304
*4069 FILLER_22_336
*4070 FILLER_22_344
*4071 FILLER_22_346
*4072 FILLER_22_349
*4073 FILLER_22_353
*4074 FILLER_22_361
*4075 FILLER_22_367
*4076 FILLER_22_375
*4077 FILLER_22_380
*4078 FILLER_22_384
*4079 FILLER_22_416
*4080 FILLER_22_418
*4081 FILLER_23_1
*4082 FILLER_23_5
*4083 FILLER_23_13
*4084 FILLER_23_21
*4085 FILLER_23_29
*4086 FILLER_23_32
*4087 FILLER_23_39
*4088 FILLER_23_45
*4089 FILLER_23_49
*4090 FILLER_23_55
*4091 FILLER_23_61
*4092 FILLER_23_67
*4093 FILLER_23_89
*4094 FILLER_23_99
*4095 FILLER_23_115
*4096 FILLER_23_123
*4097 FILLER_23_126
*4098 FILLER_23_130
*4099 FILLER_23_133
*4100 FILLER_23_141
*4101 FILLER_23_145
*4102 FILLER_23_153
*4103 FILLER_23_157
*4104 FILLER_23_164
*4105 FILLER_23_196
*4106 FILLER_23_204
*4107 FILLER_23_208
*4108 FILLER_23_217
*4109 FILLER_23_233
*4110 FILLER_23_235
*4111 FILLER_23_242
*4112 FILLER_23_250
*4113 FILLER_23_252
*4114 FILLER_23_255
*4115 FILLER_23_263
*4116 FILLER_23_271
*4117 FILLER_23_275
*4118 FILLER_23_278
*4119 FILLER_23_284
*4120 FILLER_23_292
*4121 FILLER_23_296
*4122 FILLER_23_304
*4123 FILLER_23_309
*4124 FILLER_23_311
*4125 FILLER_23_314
*4126 FILLER_23_330
*4127 FILLER_23_338
*4128 FILLER_23_342
*4129 FILLER_23_344
*4130 FILLER_23_347
*4131 FILLER_23_363
*4132 FILLER_23_367
*4133 FILLER_23_372
*4134 FILLER_23_404
*4135 FILLER_23_412
*4136 FILLER_23_416
*4137 FILLER_23_418
*4138 FILLER_24_1
*4139 FILLER_24_5
*4140 FILLER_24_14
*4141 FILLER_24_30
*4142 FILLER_24_44
*4143 FILLER_24_76
*4144 FILLER_24_108
*4145 FILLER_24_114
*4146 FILLER_24_146
*4147 FILLER_24_162
*4148 FILLER_24_168
*4149 FILLER_24_184
*4150 FILLER_24_188
*4151 FILLER_24_192
*4152 FILLER_24_200
*4153 FILLER_24_204
*4154 FILLER_24_214
*4155 FILLER_24_218
*4156 FILLER_24_250
*4157 FILLER_24_282
*4158 FILLER_24_314
*4159 FILLER_24_318
*4160 FILLER_24_321
*4161 FILLER_24_325
*4162 FILLER_24_331
*4163 FILLER_24_338
*4164 FILLER_24_346
*4165 FILLER_24_350
*4166 FILLER_24_354
*4167 FILLER_24_362
*4168 FILLER_24_365
*4169 FILLER_24_373
*4170 FILLER_24_389
*4171 FILLER_24_397
*4172 FILLER_24_401
*4173 FILLER_24_404
*4174 FILLER_24_412
*4175 FILLER_24_414
*4176 FILLER_24_417
*4177 FILLER_25_1
*4178 FILLER_25_33
*4179 FILLER_25_37
*4180 FILLER_25_40
*4181 FILLER_25_56
*4182 FILLER_25_60
*4183 FILLER_25_92
*4184 FILLER_25_108
*4185 FILLER_25_116
*4186 FILLER_25_120
*4187 FILLER_25_123
*4188 FILLER_25_131
*4189 FILLER_25_133
*4190 FILLER_25_136
*4191 FILLER_25_152
*4192 FILLER_25_154
*4193 FILLER_25_159
*4194 FILLER_25_163
*4195 FILLER_25_179
*4196 FILLER_25_185
*4197 FILLER_25_191
*4198 FILLER_25_207
*4199 FILLER_25_211
*4200 FILLER_25_227
*4201 FILLER_25_231
*4202 FILLER_25_233
*4203 FILLER_25_241
*4204 FILLER_25_249
*4205 FILLER_25_251
*4206 FILLER_25_254
*4207 FILLER_25_262
*4208 FILLER_25_266
*4209 FILLER_25_272
*4210 FILLER_25_277
*4211 FILLER_25_285
*4212 FILLER_25_289
*4213 FILLER_25_295
*4214 FILLER_25_303
*4215 FILLER_25_307
*4216 FILLER_25_311
*4217 FILLER_25_313
*4218 FILLER_25_316
*4219 FILLER_25_320
*4220 FILLER_25_322
*4221 FILLER_25_329
*4222 FILLER_25_361
*4223 FILLER_25_365
*4224 FILLER_25_367
*4225 FILLER_25_371
*4226 FILLER_25_375
*4227 FILLER_25_378
*4228 FILLER_25_394
*4229 FILLER_25_399
*4230 FILLER_25_401
*4231 FILLER_25_408
*4232 FILLER_25_416
*4233 FILLER_25_418
*4234 FILLER_26_1
*4235 FILLER_26_33
*4236 FILLER_26_35
*4237 FILLER_26_39
*4238 FILLER_26_43
*4239 FILLER_26_59
*4240 FILLER_26_63
*4241 FILLER_26_70
*4242 FILLER_26_75
*4243 FILLER_26_81
*4244 FILLER_26_85
*4245 FILLER_26_90
*4246 FILLER_26_96
*4247 FILLER_26_101
*4248 FILLER_26_105
*4249 FILLER_26_107
*4250 FILLER_26_110
*4251 FILLER_26_116
*4252 FILLER_26_122
*4253 FILLER_26_129
*4254 FILLER_26_135
*4255 FILLER_26_137
*4256 FILLER_26_144
*4257 FILLER_26_148
*4258 FILLER_26_151
*4259 FILLER_26_157
*4260 FILLER_26_163
*4261 FILLER_26_167
*4262 FILLER_26_183
*4263 FILLER_26_189
*4264 FILLER_26_197
*4265 FILLER_26_200
*4266 FILLER_26_204
*4267 FILLER_26_213
*4268 FILLER_26_217
*4269 FILLER_26_221
*4270 FILLER_26_228
*4271 FILLER_26_232
*4272 FILLER_26_242
*4273 FILLER_26_246
*4274 FILLER_26_250
*4275 FILLER_26_258
*4276 FILLER_26_263
*4277 FILLER_26_271
*4278 FILLER_26_278
*4279 FILLER_26_284
*4280 FILLER_26_292
*4281 FILLER_26_299
*4282 FILLER_26_315
*4283 FILLER_26_317
*4284 FILLER_26_321
*4285 FILLER_26_327
*4286 FILLER_26_331
*4287 FILLER_26_363
*4288 FILLER_26_367
*4289 FILLER_26_369
*4290 FILLER_26_375
*4291 FILLER_26_407
*4292 FILLER_26_415
*4293 FILLER_27_1
*4294 FILLER_27_5
*4295 FILLER_27_7
*4296 FILLER_27_15
*4297 FILLER_27_23
*4298 FILLER_27_31
*4299 FILLER_27_35
*4300 FILLER_27_39
*4301 FILLER_27_43
*4302 FILLER_27_75
*4303 FILLER_27_91
*4304 FILLER_27_93
*4305 FILLER_27_96
*4306 FILLER_27_112
*4307 FILLER_27_122
*4308 FILLER_27_154
*4309 FILLER_27_159
*4310 FILLER_27_175
*4311 FILLER_27_179
*4312 FILLER_27_181
*4313 FILLER_27_184
*4314 FILLER_27_216
*4315 FILLER_27_232
*4316 FILLER_27_236
*4317 FILLER_27_239
*4318 FILLER_27_271
*4319 FILLER_27_275
*4320 FILLER_27_307
*4321 FILLER_27_339
*4322 FILLER_27_347
*4323 FILLER_27_350
*4324 FILLER_27_354
*4325 FILLER_27_356
*4326 FILLER_27_362
*4327 FILLER_27_370
*4328 FILLER_27_378
*4329 FILLER_27_380
*4330 FILLER_27_383
*4331 FILLER_27_391
*4332 FILLER_27_393
*4333 FILLER_27_398
*4334 FILLER_27_404
*4335 FILLER_27_410
*4336 FILLER_27_416
*4337 FILLER_27_418
*4338 FILLER_28_1
*4339 FILLER_28_5
*4340 FILLER_28_9
*4341 FILLER_28_25
*4342 FILLER_28_29
*4343 FILLER_28_33
*4344 FILLER_28_41
*4345 FILLER_28_46
*4346 FILLER_28_54
*4347 FILLER_28_58
*4348 FILLER_28_60
*4349 FILLER_28_63
*4350 FILLER_28_65
*4351 FILLER_28_68
*4352 FILLER_28_100
*4353 FILLER_28_116
*4354 FILLER_28_124
*4355 FILLER_28_127
*4356 FILLER_28_159
*4357 FILLER_28_167
*4358 FILLER_28_169
*4359 FILLER_28_172
*4360 FILLER_28_188
*4361 FILLER_28_195
*4362 FILLER_28_211
*4363 FILLER_28_215
*4364 FILLER_28_217
*4365 FILLER_28_220
*4366 FILLER_28_225
*4367 FILLER_28_257
*4368 FILLER_28_289
*4369 FILLER_28_305
*4370 FILLER_28_313
*4371 FILLER_28_317
*4372 FILLER_28_321
*4373 FILLER_28_329
*4374 FILLER_28_337
*4375 FILLER_28_340
*4376 FILLER_28_345
*4377 FILLER_28_353
*4378 FILLER_28_369
*4379 FILLER_28_373
*4380 FILLER_28_376
*4381 FILLER_28_380
*4382 FILLER_28_389
*4383 FILLER_28_405
*4384 FILLER_28_409
*4385 FILLER_28_412
*4386 FILLER_28_416
*4387 FILLER_28_418
*4388 FILLER_29_1
*4389 FILLER_29_33
*4390 FILLER_29_43
*4391 FILLER_29_51
*4392 FILLER_29_72
*4393 FILLER_29_81
*4394 FILLER_29_85
*4395 FILLER_29_87
*4396 FILLER_29_95
*4397 FILLER_29_101
*4398 FILLER_29_107
*4399 FILLER_29_113
*4400 FILLER_29_135
*4401 FILLER_29_137
*4402 FILLER_29_141
*4403 FILLER_29_149
*4404 FILLER_29_153
*4405 FILLER_29_155
*4406 FILLER_29_176
*4407 FILLER_29_182
*4408 FILLER_29_186
*4409 FILLER_29_192
*4410 FILLER_29_208
*4411 FILLER_29_210
*4412 FILLER_29_215
*4413 FILLER_29_222
*4414 FILLER_29_228
*4415 FILLER_29_236
*4416 FILLER_29_240
*4417 FILLER_29_247
*4418 FILLER_29_255
*4419 FILLER_29_263
*4420 FILLER_29_269
*4421 FILLER_29_275
*4422 FILLER_29_283
*4423 FILLER_29_287
*4424 FILLER_29_289
*4425 FILLER_29_296
*4426 FILLER_29_300
*4427 FILLER_29_303
*4428 FILLER_29_310
*4429 FILLER_29_318
*4430 FILLER_29_322
*4431 FILLER_29_329
*4432 FILLER_29_333
*4433 FILLER_29_337
*4434 FILLER_29_343
*4435 FILLER_29_351
*4436 FILLER_29_355
*4437 FILLER_29_387
*4438 FILLER_30_1
*4439 FILLER_30_9
*4440 FILLER_30_17
*4441 FILLER_30_19
*4442 FILLER_30_24
*4443 FILLER_30_56
*4444 FILLER_30_88
*4445 FILLER_30_104
*4446 FILLER_30_112
*4447 FILLER_30_116
*4448 FILLER_30_118
*4449 FILLER_30_121
*4450 FILLER_30_137
*4451 FILLER_30_145
*4452 FILLER_30_153
*4453 FILLER_30_161
*4454 FILLER_30_165
*4455 FILLER_30_169
*4456 FILLER_30_179
*4457 FILLER_30_189
*4458 FILLER_30_195
*4459 FILLER_30_211
*4460 FILLER_30_215
*4461 FILLER_30_219
*4462 FILLER_30_224
*4463 FILLER_30_242
*4464 FILLER_30_246
*4465 FILLER_30_250
*4466 FILLER_30_260
*4467 FILLER_30_270
*4468 FILLER_30_274
*4469 FILLER_30_278
*4470 FILLER_30_281
*4471 FILLER_30_283
*4472 FILLER_30_289
*4473 FILLER_30_297
*4474 FILLER_30_301
*4475 FILLER_30_305
*4476 FILLER_30_313
*4477 FILLER_30_316
*4478 FILLER_30_320
*4479 FILLER_30_324
*4480 FILLER_30_326
*4481 FILLER_30_329
*4482 FILLER_30_345
*4483 FILLER_30_352
*4484 FILLER_30_372
*4485 FILLER_30_378
*4486 FILLER_30_380
*4487 FILLER_30_383
*4488 FILLER_30_390
*4489 FILLER_30_398
*4490 FILLER_30_408
*4491 FILLER_30_416
*4492 FILLER_30_418
*4493 FILLER_31_1
*4494 FILLER_31_5
*4495 FILLER_31_9
*4496 FILLER_31_13
*4497 FILLER_31_21
*4498 FILLER_31_25
*4499 FILLER_31_31
*4500 FILLER_31_33
*4501 FILLER_31_36
*4502 FILLER_31_44
*4503 FILLER_31_49
*4504 FILLER_31_81
*4505 FILLER_31_85
*4506 FILLER_31_89
*4507 FILLER_31_95
*4508 FILLER_31_110
*4509 FILLER_31_118
*4510 FILLER_31_125
*4511 FILLER_31_157
*4512 FILLER_31_189
*4513 FILLER_31_221
*4514 FILLER_31_253
*4515 FILLER_31_285
*4516 FILLER_31_317
*4517 FILLER_31_349
*4518 FILLER_31_353
*4519 FILLER_31_355
*4520 FILLER_31_358
*4521 FILLER_31_366
*4522 FILLER_31_370
*4523 FILLER_31_375
*4524 FILLER_31_377
*4525 FILLER_31_384
*4526 FILLER_31_400
*4527 FILLER_31_404
*4528 FILLER_31_406
*4529 FILLER_31_413
*4530 FILLER_31_417
*4531 FILLER_32_1
*4532 FILLER_32_33
*4533 FILLER_32_37
*4534 FILLER_32_39
*4535 FILLER_32_53
*4536 FILLER_32_57
*4537 FILLER_32_60
*4538 FILLER_32_69
*4539 FILLER_32_77
*4540 FILLER_32_81
*4541 FILLER_32_87
*4542 FILLER_32_95
*4543 FILLER_32_103
*4544 FILLER_32_111
*4545 FILLER_32_115
*4546 FILLER_32_130
*4547 FILLER_32_138
*4548 FILLER_32_142
*4549 FILLER_32_147
*4550 FILLER_32_155
*4551 FILLER_32_166
*4552 FILLER_32_174
*4553 FILLER_32_182
*4554 FILLER_32_186
*4555 FILLER_32_188
*4556 FILLER_32_195
*4557 FILLER_32_211
*4558 FILLER_32_215
*4559 FILLER_32_219
*4560 FILLER_32_227
*4561 FILLER_32_235
*4562 FILLER_32_239
*4563 FILLER_32_243
*4564 FILLER_32_259
*4565 FILLER_32_263
*4566 FILLER_32_271
*4567 FILLER_32_279
*4568 FILLER_32_281
*4569 FILLER_32_284
*4570 FILLER_32_316
*4571 FILLER_32_320
*4572 FILLER_32_323
*4573 FILLER_32_331
*4574 FILLER_32_349
*4575 FILLER_32_357
*4576 FILLER_32_361
*4577 FILLER_32_369
*4578 FILLER_32_375
*4579 FILLER_32_391
*4580 FILLER_32_399
*4581 FILLER_32_405
*4582 FILLER_32_413
*4583 FILLER_32_417
*4584 FILLER_33_1
*4585 FILLER_33_33
*4586 FILLER_33_37
*4587 FILLER_33_40
*4588 FILLER_33_44
*4589 FILLER_33_46
*4590 FILLER_33_49
*4591 FILLER_33_65
*4592 FILLER_33_73
*4593 FILLER_33_76
*4594 FILLER_33_84
*4595 FILLER_33_88
*4596 FILLER_33_91
*4597 FILLER_33_95
*4598 FILLER_33_111
*4599 FILLER_33_123
*4600 FILLER_33_155
*4601 FILLER_33_171
*4602 FILLER_33_175
*4603 FILLER_33_179
*4604 FILLER_33_194
*4605 FILLER_33_199
*4606 FILLER_33_203
*4607 FILLER_33_210
*4608 FILLER_33_216
*4609 FILLER_33_227
*4610 FILLER_33_233
*4611 FILLER_33_241
*4612 FILLER_33_250
*4613 FILLER_33_266
*4614 FILLER_33_276
*4615 FILLER_33_278
*4616 FILLER_33_281
*4617 FILLER_33_283
*4618 FILLER_33_291
*4619 FILLER_33_297
*4620 FILLER_33_301
*4621 FILLER_33_308
*4622 FILLER_33_310
*4623 FILLER_33_313
*4624 FILLER_33_317
*4625 FILLER_33_321
*4626 FILLER_33_323
*4627 FILLER_33_330
*4628 FILLER_33_332
*4629 FILLER_33_335
*4630 FILLER_33_351
*4631 FILLER_33_353
*4632 FILLER_33_356
*4633 FILLER_33_372
*4634 FILLER_33_380
*4635 FILLER_33_383
*4636 FILLER_33_399
*4637 FILLER_33_403
*4638 FILLER_33_406
*4639 FILLER_33_410
*4640 FILLER_33_418
*4641 FILLER_34_1
*4642 FILLER_34_5
*4643 FILLER_34_9
*4644 FILLER_34_15
*4645 FILLER_34_34
*4646 FILLER_34_50
*4647 FILLER_34_58
*4648 FILLER_34_62
*4649 FILLER_34_94
*4650 FILLER_34_126
*4651 FILLER_34_142
*4652 FILLER_34_152
*4653 FILLER_34_168
*4654 FILLER_34_176
*4655 FILLER_34_182
*4656 FILLER_34_190
*4657 FILLER_34_192
*4658 FILLER_34_195
*4659 FILLER_34_211
*4660 FILLER_34_215
*4661 FILLER_34_217
*4662 FILLER_34_220
*4663 FILLER_34_252
*4664 FILLER_34_284
*4665 FILLER_34_316
*4666 FILLER_34_334
*4667 FILLER_34_342
*4668 FILLER_34_346
*4669 FILLER_34_348
*4670 FILLER_34_352
*4671 FILLER_34_360
*4672 FILLER_34_364
*4673 FILLER_34_372
*4674 FILLER_34_376
*4675 FILLER_34_384
*4676 FILLER_34_400
*4677 FILLER_34_402
*4678 FILLER_34_409
*4679 FILLER_34_414
*4680 FILLER_34_418
*4681 FILLER_35_1
*4682 FILLER_35_5
*4683 FILLER_35_9
*4684 FILLER_35_16
*4685 FILLER_35_32
*4686 FILLER_35_36
*4687 FILLER_35_40
*4688 FILLER_35_48
*4689 FILLER_35_67
*4690 FILLER_35_83
*4691 FILLER_35_85
*4692 FILLER_35_92
*4693 FILLER_35_110
*4694 FILLER_35_112
*4695 FILLER_35_115
*4696 FILLER_35_119
*4697 FILLER_35_121
*4698 FILLER_35_124
*4699 FILLER_35_132
*4700 FILLER_35_136
*4701 FILLER_35_145
*4702 FILLER_35_161
*4703 FILLER_35_165
*4704 FILLER_35_171
*4705 FILLER_35_175
*4706 FILLER_35_179
*4707 FILLER_35_184
*4708 FILLER_35_200
*4709 FILLER_35_208
*4710 FILLER_35_211
*4711 FILLER_35_243
*4712 FILLER_35_251
*4713 FILLER_35_253
*4714 FILLER_35_256
*4715 FILLER_35_264
*4716 FILLER_35_284
*4717 FILLER_35_290
*4718 FILLER_35_298
*4719 FILLER_35_302
*4720 FILLER_35_304
*4721 FILLER_35_307
*4722 FILLER_35_323
*4723 FILLER_35_330
*4724 FILLER_35_362
*4725 FILLER_35_370
*4726 FILLER_35_374
*4727 FILLER_35_376
*4728 FILLER_35_379
*4729 FILLER_35_395
*4730 FILLER_35_399
*4731 FILLER_35_407
*4732 FILLER_35_413
*4733 FILLER_35_417
*4734 FILLER_36_1
*4735 FILLER_36_9
*4736 FILLER_36_11
*4737 FILLER_36_14
*4738 FILLER_36_30
*4739 FILLER_36_40
*4740 FILLER_36_62
*4741 FILLER_36_70
*4742 FILLER_36_72
*4743 FILLER_36_75
*4744 FILLER_36_79
*4745 FILLER_36_82
*4746 FILLER_36_86
*4747 FILLER_36_94
*4748 FILLER_36_98
*4749 FILLER_36_102
*4750 FILLER_36_108
*4751 FILLER_36_115
*4752 FILLER_36_117
*4753 FILLER_36_120
*4754 FILLER_36_136
*4755 FILLER_36_142
*4756 FILLER_36_146
*4757 FILLER_36_178
*4758 FILLER_36_184
*4759 FILLER_36_192
*4760 FILLER_36_196
*4761 FILLER_36_218
*4762 FILLER_36_226
*4763 FILLER_36_232
*4764 FILLER_36_238
*4765 FILLER_36_242
*4766 FILLER_36_250
*4767 FILLER_36_254
*4768 FILLER_36_257
*4769 FILLER_36_273
*4770 FILLER_36_280
*4771 FILLER_36_288
*4772 FILLER_36_291
*4773 FILLER_36_299
*4774 FILLER_36_302
*4775 FILLER_36_307
*4776 FILLER_36_315
*4777 FILLER_36_319
*4778 FILLER_36_325
*4779 FILLER_36_333
*4780 FILLER_36_337
*4781 FILLER_36_341
*4782 FILLER_36_349
*4783 FILLER_36_351
*4784 FILLER_36_356
*4785 FILLER_36_372
*4786 FILLER_36_376
*4787 FILLER_36_384
*4788 FILLER_36_400
*4789 FILLER_36_404
*4790 FILLER_36_408
*4791 FILLER_36_416
*4792 FILLER_36_418
*4793 FILLER_37_1
*4794 FILLER_37_23
*4795 FILLER_37_31
*4796 FILLER_37_33
*4797 FILLER_37_36
*4798 FILLER_37_52
*4799 FILLER_37_60
*4800 FILLER_37_64
*4801 FILLER_37_67
*4802 FILLER_37_83
*4803 FILLER_37_87
*4804 FILLER_37_90
*4805 FILLER_37_94
*4806 FILLER_37_126
*4807 FILLER_37_158
*4808 FILLER_37_166
*4809 FILLER_37_172
*4810 FILLER_37_180
*4811 FILLER_37_184
*4812 FILLER_37_192
*4813 FILLER_37_198
*4814 FILLER_37_205
*4815 FILLER_37_209
*4816 FILLER_37_212
*4817 FILLER_37_216
*4818 FILLER_37_224
*4819 FILLER_37_226
*4820 FILLER_37_229
*4821 FILLER_37_245
*4822 FILLER_37_249
*4823 FILLER_37_257
*4824 FILLER_37_261
*4825 FILLER_37_265
*4826 FILLER_37_273
*4827 FILLER_37_279
*4828 FILLER_37_284
*4829 FILLER_37_300
*4830 FILLER_37_308
*4831 FILLER_37_311
*4832 FILLER_37_319
*4833 FILLER_37_323
*4834 FILLER_37_325
*4835 FILLER_37_328
*4836 FILLER_37_344
*4837 FILLER_37_350
*4838 FILLER_37_357
*4839 FILLER_37_361
*4840 FILLER_37_393
*4841 FILLER_37_401
*4842 FILLER_37_403
*4843 FILLER_37_407
*4844 FILLER_37_412
*4845 FILLER_37_416
*4846 FILLER_37_418
*4847 FILLER_38_1
*4848 FILLER_38_17
*4849 FILLER_38_25
*4850 FILLER_38_46
*4851 FILLER_38_48
*4852 FILLER_38_54
*4853 FILLER_38_58
*4854 FILLER_38_61
*4855 FILLER_38_97
*4856 FILLER_38_105
*4857 FILLER_38_108
*4858 FILLER_38_114
*4859 FILLER_38_120
*4860 FILLER_38_136
*4861 FILLER_38_138
*4862 FILLER_38_143
*4863 FILLER_38_147
*4864 FILLER_38_152
*4865 FILLER_38_157
*4866 FILLER_38_159
*4867 FILLER_38_180
*4868 FILLER_38_184
*4869 FILLER_38_186
*4870 FILLER_38_191
*4871 FILLER_38_195
*4872 FILLER_38_210
*4873 FILLER_38_218
*4874 FILLER_38_222
*4875 FILLER_38_224
*4876 FILLER_38_228
*4877 FILLER_38_260
*4878 FILLER_38_276
*4879 FILLER_38_282
*4880 FILLER_38_298
*4881 FILLER_38_302
*4882 FILLER_38_306
*4883 FILLER_38_322
*4884 FILLER_38_324
*4885 FILLER_38_327
*4886 FILLER_38_333
*4887 FILLER_38_349
*4888 FILLER_38_359
*4889 FILLER_38_378
*4890 FILLER_38_386
*4891 FILLER_38_402
*4892 FILLER_38_409
*4893 FILLER_38_413
*4894 FILLER_38_417
*4895 FILLER_39_1
*4896 FILLER_39_9
*4897 FILLER_39_12
*4898 FILLER_39_44
*4899 FILLER_39_48
*4900 FILLER_39_50
*4901 FILLER_39_58
*4902 FILLER_39_62
*4903 FILLER_39_67
*4904 FILLER_39_83
*4905 FILLER_39_89
*4906 FILLER_39_105
*4907 FILLER_39_113
*4908 FILLER_39_117
*4909 FILLER_39_123
*4910 FILLER_39_155
*4911 FILLER_39_187
*4912 FILLER_39_219
*4913 FILLER_39_225
*4914 FILLER_39_234
*4915 FILLER_39_240
*4916 FILLER_39_248
*4917 FILLER_39_258
*4918 FILLER_39_274
*4919 FILLER_39_276
*4920 FILLER_39_279
*4921 FILLER_39_287
*4922 FILLER_39_291
*4923 FILLER_39_293
*4924 FILLER_39_296
*4925 FILLER_39_300
*4926 FILLER_39_308
*4927 FILLER_39_314
*4928 FILLER_39_319
*4929 FILLER_39_323
*4930 FILLER_39_329
*4931 FILLER_39_336
*4932 FILLER_39_340
*4933 FILLER_39_342
*4934 FILLER_39_345
*4935 FILLER_39_353
*4936 FILLER_39_357
*4937 FILLER_39_362
*4938 FILLER_39_394
*4939 FILLER_39_398
*4940 FILLER_39_400
*4941 FILLER_39_407
*4942 FILLER_39_411
*4943 FILLER_39_417
*4944 FILLER_40_1
*4945 FILLER_40_23
*4946 FILLER_40_28
*4947 FILLER_40_44
*4948 FILLER_40_52
*4949 FILLER_40_74
*4950 FILLER_40_82
*4951 FILLER_40_85
*4952 FILLER_40_91
*4953 FILLER_40_95
*4954 FILLER_40_102
*4955 FILLER_40_106
*4956 FILLER_40_122
*4957 FILLER_40_126
*4958 FILLER_40_131
*4959 FILLER_40_147
*4960 FILLER_40_152
*4961 FILLER_40_184
*4962 FILLER_40_216
*4963 FILLER_40_224
*4964 FILLER_40_230
*4965 FILLER_40_248
*4966 FILLER_40_252
*4967 FILLER_40_256
*4968 FILLER_40_258
*4969 FILLER_40_261
*4970 FILLER_40_265
*4971 FILLER_40_267
*4972 FILLER_40_273
*4973 FILLER_40_280
*4974 FILLER_40_284
*4975 FILLER_40_300
*4976 FILLER_40_302
*4977 FILLER_40_305
*4978 FILLER_40_309
*4979 FILLER_40_313
*4980 FILLER_40_345
*4981 FILLER_40_353
*4982 FILLER_40_357
*4983 FILLER_40_363
*4984 FILLER_40_384
*4985 FILLER_40_416
*4986 FILLER_40_418
*4987 FILLER_41_1
*4988 FILLER_41_17
*4989 FILLER_41_25
*4990 FILLER_41_29
*4991 FILLER_41_36
*4992 FILLER_41_44
*4993 FILLER_41_46
*4994 FILLER_41_53
*4995 FILLER_41_69
*4996 FILLER_41_72
*4997 FILLER_41_88
*4998 FILLER_41_96
*4999 FILLER_41_100
*5000 FILLER_41_103
*5001 FILLER_41_107
*5002 FILLER_41_123
*5003 FILLER_41_131
*5004 FILLER_41_147
*5005 FILLER_41_150
*5006 FILLER_41_154
*5007 FILLER_41_170
*5008 FILLER_41_178
*5009 FILLER_41_185
*5010 FILLER_41_191
*5011 FILLER_41_196
*5012 FILLER_41_204
*5013 FILLER_41_210
*5014 FILLER_41_218
*5015 FILLER_41_220
*5016 FILLER_41_223
*5017 FILLER_41_231
*5018 FILLER_41_237
*5019 FILLER_41_253
*5020 FILLER_41_257
*5021 FILLER_41_265
*5022 FILLER_41_281
*5023 FILLER_41_289
*5024 FILLER_41_292
*5025 FILLER_41_308
*5026 FILLER_41_316
*5027 FILLER_41_318
*5028 FILLER_41_321
*5029 FILLER_41_327
*5030 FILLER_41_333
*5031 FILLER_41_341
*5032 FILLER_41_345
*5033 FILLER_41_347
*5034 FILLER_41_354
*5035 FILLER_41_358
*5036 FILLER_41_374
*5037 FILLER_41_376
*5038 FILLER_41_380
*5039 FILLER_41_385
*5040 FILLER_41_404
*5041 FILLER_41_408
*5042 FILLER_41_410
*5043 FILLER_41_413
*5044 FILLER_41_417
*5045 FILLER_42_1
*5046 FILLER_42_9
*5047 FILLER_42_13
*5048 FILLER_42_49
*5049 FILLER_42_54
*5050 FILLER_42_58
*5051 FILLER_42_60
*5052 FILLER_42_63
*5053 FILLER_42_71
*5054 FILLER_42_79
*5055 FILLER_42_83
*5056 FILLER_42_91
*5057 FILLER_42_93
*5058 FILLER_42_96
*5059 FILLER_42_106
*5060 FILLER_42_111
*5061 FILLER_42_120
*5062 FILLER_42_128
*5063 FILLER_42_134
*5064 FILLER_42_138
*5065 FILLER_42_170
*5066 FILLER_42_172
*5067 FILLER_42_175
*5068 FILLER_42_191
*5069 FILLER_42_195
*5070 FILLER_42_197
*5071 FILLER_42_218
*5072 FILLER_42_250
*5073 FILLER_42_254
*5074 FILLER_42_286
*5075 FILLER_42_294
*5076 FILLER_42_298
*5077 FILLER_42_300
*5078 FILLER_42_307
*5079 FILLER_42_315
*5080 FILLER_42_319
*5081 FILLER_42_323
*5082 FILLER_42_331
*5083 FILLER_42_338
*5084 FILLER_42_346
*5085 FILLER_42_354
*5086 FILLER_42_370
*5087 FILLER_42_378
*5088 FILLER_42_382
*5089 FILLER_42_385
*5090 FILLER_42_393
*5091 FILLER_42_402
*5092 FILLER_42_410
*5093 FILLER_42_414
*5094 FILLER_42_418
*5095 FILLER_43_1
*5096 FILLER_43_23
*5097 FILLER_43_39
*5098 FILLER_43_47
*5099 FILLER_43_50
*5100 FILLER_43_66
*5101 FILLER_43_71
*5102 FILLER_43_78
*5103 FILLER_43_94
*5104 FILLER_43_96
*5105 FILLER_43_101
*5106 FILLER_43_106
*5107 FILLER_43_110
*5108 FILLER_43_118
*5109 FILLER_43_120
*5110 FILLER_43_123
*5111 FILLER_43_127
*5112 FILLER_43_130
*5113 FILLER_43_138
*5114 FILLER_43_142
*5115 FILLER_43_144
*5116 FILLER_43_150
*5117 FILLER_43_156
*5118 FILLER_43_160
*5119 FILLER_43_166
*5120 FILLER_43_170
*5121 FILLER_43_173
*5122 FILLER_43_189
*5123 FILLER_43_197
*5124 FILLER_43_201
*5125 FILLER_43_205
*5126 FILLER_43_209
*5127 FILLER_43_217
*5128 FILLER_43_221
*5129 FILLER_43_227
*5130 FILLER_43_233
*5131 FILLER_43_241
*5132 FILLER_43_247
*5133 FILLER_43_251
*5134 FILLER_43_258
*5135 FILLER_43_274
*5136 FILLER_43_276
*5137 FILLER_43_282
*5138 FILLER_43_298
*5139 FILLER_43_304
*5140 FILLER_43_312
*5141 FILLER_43_316
*5142 FILLER_43_324
*5143 FILLER_43_326
*5144 FILLER_43_329
*5145 FILLER_43_345
*5146 FILLER_43_355
*5147 FILLER_43_359
*5148 FILLER_43_367
*5149 FILLER_43_369
*5150 FILLER_43_373
*5151 FILLER_43_378
*5152 FILLER_43_386
*5153 FILLER_43_390
*5154 FILLER_43_398
*5155 FILLER_43_402
*5156 FILLER_43_406
*5157 FILLER_43_410
*5158 FILLER_43_414
*5159 FILLER_43_418
*5160 FILLER_44_1
*5161 FILLER_44_17
*5162 FILLER_44_22
*5163 FILLER_44_28
*5164 FILLER_44_44
*5165 FILLER_44_48
*5166 FILLER_44_50
*5167 FILLER_44_56
*5168 FILLER_44_60
*5169 FILLER_44_92
*5170 FILLER_44_100
*5171 FILLER_44_104
*5172 FILLER_44_112
*5173 FILLER_44_114
*5174 FILLER_44_117
*5175 FILLER_44_121
*5176 FILLER_44_153
*5177 FILLER_44_161
*5178 FILLER_44_182
*5179 FILLER_44_198
*5180 FILLER_44_206
*5181 FILLER_44_210
*5182 FILLER_44_226
*5183 FILLER_44_230
*5184 FILLER_44_246
*5185 FILLER_44_254
*5186 FILLER_44_258
*5187 FILLER_44_262
*5188 FILLER_44_270
*5189 FILLER_44_277
*5190 FILLER_44_283
*5191 FILLER_44_289
*5192 FILLER_44_305
*5193 FILLER_44_311
*5194 FILLER_44_315
*5195 FILLER_44_323
*5196 FILLER_44_331
*5197 FILLER_44_336
*5198 FILLER_44_358
*5199 FILLER_44_374
*5200 FILLER_44_376
*5201 FILLER_44_379
*5202 FILLER_44_381
*5203 FILLER_44_384
*5204 FILLER_44_416
*5205 FILLER_44_418
*5206 FILLER_45_1
*5207 FILLER_45_17
*5208 FILLER_45_21
*5209 FILLER_45_25
*5210 FILLER_45_41
*5211 FILLER_45_54
*5212 FILLER_45_58
*5213 FILLER_45_62
*5214 FILLER_45_70
*5215 FILLER_45_74
*5216 FILLER_45_82
*5217 FILLER_45_84
*5218 FILLER_45_90
*5219 FILLER_45_106
*5220 FILLER_45_114
*5221 FILLER_45_118
*5222 FILLER_45_124
*5223 FILLER_45_129
*5224 FILLER_45_149
*5225 FILLER_45_181
*5226 FILLER_45_183
*5227 FILLER_45_197
*5228 FILLER_45_205
*5229 FILLER_45_209
*5230 FILLER_45_225
*5231 FILLER_45_227
*5232 FILLER_45_231
*5233 FILLER_45_239
*5234 FILLER_45_242
*5235 FILLER_45_274
*5236 FILLER_45_284
*5237 FILLER_45_292
*5238 FILLER_45_296
*5239 FILLER_45_328
*5240 FILLER_45_332
*5241 FILLER_45_340
*5242 FILLER_45_344
*5243 FILLER_45_348
*5244 FILLER_45_352
*5245 FILLER_45_354
*5246 FILLER_45_357
*5247 FILLER_45_389
*5248 FILLER_45_411
*5249 FILLER_46_1
*5250 FILLER_46_5
*5251 FILLER_46_11
*5252 FILLER_46_20
*5253 FILLER_46_36
*5254 FILLER_46_44
*5255 FILLER_46_48
*5256 FILLER_46_56
*5257 FILLER_46_59
*5258 FILLER_46_71
*5259 FILLER_46_87
*5260 FILLER_46_95
*5261 FILLER_46_99
*5262 FILLER_46_102
*5263 FILLER_46_118
*5264 FILLER_46_132
*5265 FILLER_46_148
*5266 FILLER_46_150
*5267 FILLER_46_153
*5268 FILLER_46_161
*5269 FILLER_46_165
*5270 FILLER_46_167
*5271 FILLER_46_170
*5272 FILLER_46_174
*5273 FILLER_46_176
*5274 FILLER_46_179
*5275 FILLER_46_187
*5276 FILLER_46_192
*5277 FILLER_46_200
*5278 FILLER_46_212
*5279 FILLER_46_216
*5280 FILLER_46_218
*5281 FILLER_46_226
*5282 FILLER_46_237
*5283 FILLER_46_241
*5284 FILLER_46_273
*5285 FILLER_46_305
*5286 FILLER_46_315
*5287 FILLER_46_323
*5288 FILLER_46_325
*5289 FILLER_46_329
*5290 FILLER_46_331
*5291 FILLER_46_335
*5292 FILLER_46_343
*5293 FILLER_46_347
*5294 FILLER_46_349
*5295 FILLER_46_356
*5296 FILLER_46_361
*5297 FILLER_46_369
*5298 FILLER_46_373
*5299 FILLER_46_378
*5300 FILLER_46_386
*5301 FILLER_46_390
*5302 FILLER_46_406
*5303 FILLER_46_414
*5304 FILLER_46_417
*5305 FILLER_47_1
*5306 FILLER_47_23
*5307 FILLER_47_25
*5308 FILLER_47_33
*5309 FILLER_47_37
*5310 FILLER_47_59
*5311 FILLER_47_64
*5312 FILLER_47_96
*5313 FILLER_47_98
*5314 FILLER_47_105
*5315 FILLER_47_137
*5316 FILLER_47_145
*5317 FILLER_47_149
*5318 FILLER_47_155
*5319 FILLER_47_159
*5320 FILLER_47_164
*5321 FILLER_47_196
*5322 FILLER_47_228
*5323 FILLER_47_244
*5324 FILLER_47_257
*5325 FILLER_47_279
*5326 FILLER_47_283
*5327 FILLER_47_293
*5328 FILLER_47_307
*5329 FILLER_47_312
*5330 FILLER_47_319
*5331 FILLER_47_327
*5332 FILLER_47_331
*5333 FILLER_47_335
*5334 FILLER_47_351
*5335 FILLER_47_361
*5336 FILLER_47_365
*5337 FILLER_47_373
*5338 FILLER_47_380
*5339 FILLER_47_384
*5340 FILLER_47_388
*5341 FILLER_47_404
*5342 FILLER_47_411
*5343 FILLER_48_1
*5344 FILLER_48_33
*5345 FILLER_48_49
*5346 FILLER_48_57
*5347 FILLER_48_65
*5348 FILLER_48_81
*5349 FILLER_48_88
*5350 FILLER_48_92
*5351 FILLER_48_108
*5352 FILLER_48_112
*5353 FILLER_48_114
*5354 FILLER_48_118
*5355 FILLER_48_123
*5356 FILLER_48_127
*5357 FILLER_48_159
*5358 FILLER_48_175
*5359 FILLER_48_179
*5360 FILLER_48_181
*5361 FILLER_48_189
*5362 FILLER_48_197
*5363 FILLER_48_201
*5364 FILLER_48_203
*5365 FILLER_48_210
*5366 FILLER_48_212
*5367 FILLER_48_215
*5368 FILLER_48_219
*5369 FILLER_48_221
*5370 FILLER_48_224
*5371 FILLER_48_240
*5372 FILLER_48_242
*5373 FILLER_48_245
*5374 FILLER_48_254
*5375 FILLER_48_262
*5376 FILLER_48_266
*5377 FILLER_48_274
*5378 FILLER_48_280
*5379 FILLER_48_289
*5380 FILLER_48_293
*5381 FILLER_48_301
*5382 FILLER_48_305
*5383 FILLER_48_307
*5384 FILLER_48_313
*5385 FILLER_48_317
*5386 FILLER_48_349
*5387 FILLER_48_353
*5388 FILLER_48_369
*5389 FILLER_48_377
*5390 FILLER_48_383
*5391 FILLER_48_399
*5392 FILLER_48_403
*5393 FILLER_48_406
*5394 FILLER_48_414
*5395 FILLER_48_417
*5396 FILLER_49_1
*5397 FILLER_49_11
*5398 FILLER_49_19
*5399 FILLER_49_21
*5400 FILLER_49_25
*5401 FILLER_49_41
*5402 FILLER_49_45
*5403 FILLER_49_51
*5404 FILLER_49_59
*5405 FILLER_49_68
*5406 FILLER_49_76
*5407 FILLER_49_100
*5408 FILLER_49_110
*5409 FILLER_49_112
*5410 FILLER_49_119
*5411 FILLER_49_127
*5412 FILLER_49_131
*5413 FILLER_49_140
*5414 FILLER_49_154
*5415 FILLER_49_158
*5416 FILLER_49_174
*5417 FILLER_49_184
*5418 FILLER_49_193
*5419 FILLER_49_199
*5420 FILLER_49_208
*5421 FILLER_49_214
*5422 FILLER_49_222
*5423 FILLER_49_231
*5424 FILLER_49_247
*5425 FILLER_49_257
*5426 FILLER_49_265
*5427 FILLER_49_269
*5428 FILLER_49_271
*5429 FILLER_49_274
*5430 FILLER_49_306
*5431 FILLER_49_322
*5432 FILLER_49_328
*5433 FILLER_49_333
*5434 FILLER_49_341
*5435 FILLER_49_343
*5436 FILLER_49_348
*5437 FILLER_49_350
*5438 FILLER_49_356
*5439 FILLER_49_358
*5440 FILLER_49_362
*5441 FILLER_49_378
*5442 FILLER_49_384
*5443 FILLER_49_400
*5444 FILLER_49_404
*5445 FILLER_49_411
*5446 FILLER_49_417
*5447 FILLER_50_1
*5448 FILLER_50_23
*5449 FILLER_50_29
*5450 FILLER_50_33
*5451 FILLER_50_39
*5452 FILLER_50_45
*5453 FILLER_50_61
*5454 FILLER_50_65
*5455 FILLER_50_81
*5456 FILLER_50_87
*5457 FILLER_50_91
*5458 FILLER_50_99
*5459 FILLER_50_107
*5460 FILLER_50_139
*5461 FILLER_50_155
*5462 FILLER_50_157
*5463 FILLER_50_163
*5464 FILLER_50_195
*5465 FILLER_50_227
*5466 FILLER_50_263
*5467 FILLER_50_271
*5468 FILLER_50_279
*5469 FILLER_50_281
*5470 FILLER_50_284
*5471 FILLER_50_288
*5472 FILLER_50_297
*5473 FILLER_50_313
*5474 FILLER_50_317
*5475 FILLER_50_320
*5476 FILLER_50_324
*5477 FILLER_50_326
*5478 FILLER_50_332
*5479 FILLER_50_348
*5480 FILLER_50_354
*5481 FILLER_50_370
*5482 FILLER_50_376
*5483 FILLER_50_381
*5484 FILLER_50_389
*5485 FILLER_50_394
*5486 FILLER_50_402
*5487 FILLER_50_406
*5488 FILLER_50_410
*5489 FILLER_50_414
*5490 FILLER_50_417
*5491 FILLER_51_1
*5492 FILLER_51_33
*5493 FILLER_51_41
*5494 FILLER_51_48
*5495 FILLER_51_70
*5496 FILLER_51_102
*5497 FILLER_51_118
*5498 FILLER_51_120
*5499 FILLER_51_123
*5500 FILLER_51_131
*5501 FILLER_51_135
*5502 FILLER_51_143
*5503 FILLER_51_159
*5504 FILLER_51_161
*5505 FILLER_51_164
*5506 FILLER_51_170
*5507 FILLER_51_178
*5508 FILLER_51_182
*5509 FILLER_51_186
*5510 FILLER_51_218
*5511 FILLER_51_226
*5512 FILLER_51_231
*5513 FILLER_51_235
*5514 FILLER_51_239
*5515 FILLER_51_243
*5516 FILLER_51_251
*5517 FILLER_51_256
*5518 FILLER_51_264
*5519 FILLER_51_268
*5520 FILLER_51_272
*5521 FILLER_51_276
*5522 FILLER_51_278
*5523 FILLER_51_281
*5524 FILLER_51_291
*5525 FILLER_51_297
*5526 FILLER_51_310
*5527 FILLER_51_317
*5528 FILLER_51_321
*5529 FILLER_51_326
*5530 FILLER_51_342
*5531 FILLER_51_350
*5532 FILLER_51_352
*5533 FILLER_51_355
*5534 FILLER_51_363
*5535 FILLER_51_368
*5536 FILLER_51_376
*5537 FILLER_51_378
*5538 FILLER_51_381
*5539 FILLER_51_389
*5540 FILLER_51_392
*5541 FILLER_51_396
*5542 FILLER_51_398
*5543 FILLER_51_403
*5544 FILLER_51_407
*5545 FILLER_51_409
*5546 FILLER_51_412
*5547 FILLER_51_416
*5548 FILLER_51_418
*5549 FILLER_52_1
*5550 FILLER_52_33
*5551 FILLER_52_65
*5552 FILLER_52_81
*5553 FILLER_52_83
*5554 FILLER_52_89
*5555 FILLER_52_93
*5556 FILLER_52_95
*5557 FILLER_52_99
*5558 FILLER_52_105
*5559 FILLER_52_127
*5560 FILLER_52_159
*5561 FILLER_52_167
*5562 FILLER_52_191
*5563 FILLER_52_199
*5564 FILLER_52_207
*5565 FILLER_52_211
*5566 FILLER_52_219
*5567 FILLER_52_223
*5568 FILLER_52_228
*5569 FILLER_52_235
*5570 FILLER_52_241
*5571 FILLER_52_257
*5572 FILLER_52_259
*5573 FILLER_52_262
*5574 FILLER_52_294
*5575 FILLER_52_326
*5576 FILLER_52_330
*5577 FILLER_52_334
*5578 FILLER_52_350
*5579 FILLER_52_356
*5580 FILLER_52_377
*5581 FILLER_52_393
*5582 FILLER_52_404
*5583 FILLER_52_412
*5584 FILLER_52_416
*5585 FILLER_52_418
*5586 FILLER_53_1
*5587 FILLER_53_5
*5588 FILLER_53_7
*5589 FILLER_53_10
*5590 FILLER_53_12
*5591 FILLER_53_15
*5592 FILLER_53_23
*5593 FILLER_53_55
*5594 FILLER_53_63
*5595 FILLER_53_71
*5596 FILLER_53_75
*5597 FILLER_53_80
*5598 FILLER_53_112
*5599 FILLER_53_128
*5600 FILLER_53_138
*5601 FILLER_53_146
*5602 FILLER_53_152
*5603 FILLER_53_154
*5604 FILLER_53_157
*5605 FILLER_53_173
*5606 FILLER_53_179
*5607 FILLER_53_183
*5608 FILLER_53_191
*5609 FILLER_53_195
*5610 FILLER_53_201
*5611 FILLER_53_209
*5612 FILLER_53_213
*5613 FILLER_53_229
*5614 FILLER_53_232
*5615 FILLER_53_236
*5616 FILLER_53_268
*5617 FILLER_53_276
*5618 FILLER_53_278
*5619 FILLER_53_281
*5620 FILLER_53_289
*5621 FILLER_53_295
*5622 FILLER_53_303
*5623 FILLER_53_306
*5624 FILLER_53_322
*5625 FILLER_53_326
*5626 FILLER_53_330
*5627 FILLER_53_346
*5628 FILLER_53_348
*5629 FILLER_53_355
*5630 FILLER_53_360
*5631 FILLER_53_392
*5632 FILLER_53_403
*5633 FILLER_54_1
*5634 FILLER_54_23
*5635 FILLER_54_28
*5636 FILLER_54_35
*5637 FILLER_54_37
*5638 FILLER_54_43
*5639 FILLER_54_51
*5640 FILLER_54_53
*5641 FILLER_54_59
*5642 FILLER_54_83
*5643 FILLER_54_85
*5644 FILLER_54_91
*5645 FILLER_54_95
*5646 FILLER_54_97
*5647 FILLER_54_103
*5648 FILLER_54_111
*5649 FILLER_54_115
*5650 FILLER_54_121
*5651 FILLER_54_145
*5652 FILLER_54_169
*5653 FILLER_54_173
*5654 FILLER_54_175
*5655 FILLER_54_178
*5656 FILLER_54_186
*5657 FILLER_54_218
*5658 FILLER_54_228
*5659 FILLER_54_236
*5660 FILLER_54_240
*5661 FILLER_54_248
*5662 FILLER_54_252
*5663 FILLER_54_259
*5664 FILLER_54_263
*5665 FILLER_54_267
*5666 FILLER_54_271
*5667 FILLER_54_278
*5668 FILLER_54_282
*5669 FILLER_54_289
*5670 FILLER_54_296
*5671 FILLER_54_300
*5672 FILLER_54_304
*5673 FILLER_54_309
*5674 FILLER_54_315
*5675 FILLER_54_323
*5676 FILLER_54_333
*5677 FILLER_54_349
*5678 FILLER_54_356
*5679 FILLER_54_360
*5680 FILLER_54_370
*5681 FILLER_54_375
*5682 FILLER_54_383
*5683 FILLER_54_393
*5684 FILLER_54_395
*5685 FILLER_54_398
*5686 FILLER_54_402
*5687 FILLER_54_405
*5688 FILLER_54_413
*5689 FILLER_54_417
*5690 FILLER_55_1
*5691 FILLER_55_33
*5692 FILLER_55_65
*5693 FILLER_55_97
*5694 FILLER_55_129
*5695 FILLER_55_145
*5696 FILLER_55_153
*5697 FILLER_55_156
*5698 FILLER_55_160
*5699 FILLER_55_176
*5700 FILLER_55_180
*5701 FILLER_55_188
*5702 FILLER_55_204
*5703 FILLER_55_208
*5704 FILLER_55_212
*5705 FILLER_55_220
*5706 FILLER_55_224
*5707 FILLER_55_226
*5708 FILLER_55_229
*5709 FILLER_55_233
*5710 FILLER_55_249
*5711 FILLER_55_257
*5712 FILLER_55_259
*5713 FILLER_55_262
*5714 FILLER_55_278
*5715 FILLER_55_282
*5716 FILLER_55_286
*5717 FILLER_55_290
*5718 FILLER_55_292
*5719 FILLER_55_295
*5720 FILLER_55_299
*5721 FILLER_55_301
*5722 FILLER_55_304
*5723 FILLER_55_336
*5724 FILLER_55_368
*5725 FILLER_55_376
*5726 FILLER_55_382
*5727 FILLER_55_414
*5728 FILLER_55_417

*PORTS
busy O
clk I
data_in[0] I
data_in[1] I
data_in[2] I
data_in[3] I
data_in[4] I
data_in[5] I
data_in[6] I
data_in[7] I
reset I
start I
tx O
tx_done O

*D_NET *1 0.000409831
*CONN
*I *2240:D I *D DFFR_X1
*I *2164:ZN O *D OAI22_X1
*CAP
1 *2240:D 0.000144527
2 *2164:ZN 0.000144527
3 *2240:D tx_done 0.000104453
4 *2240:D *2157:A 5.47944e-06
5 *2240:D *2168:A 3.49339e-06
6 *2240:D *2238:CK 0
7 *2240:D *2240:RN 7.35149e-06
*RES
1 *2164:ZN *2240:D 36.6072 
*END

*D_NET *2 4.75535e-05
*CONN
*I *2255:RN I *D DFFR_X1
*I *2115:ZN O *D INV_X1
*CAP
1 *2255:RN 1.49798e-05
2 *2115:ZN 1.49798e-05
3 *2255:RN *61:165 1.75939e-05
*RES
1 *2115:ZN *2255:RN 11.75 
*END

*D_NET *3 7.10548e-05
*CONN
*I *2254:RN I *D DFFR_X1
*I *2116:ZN O *D INV_X1
*CAP
1 *2254:RN 3.1234e-05
2 *2116:ZN 3.1234e-05
3 *2254:RN *1935:A 8.58686e-06
4 *2254:RN *511:108 0
*RES
1 *2116:ZN *2254:RN 13.25 
*END

*D_NET *4 4.75534e-05
*CONN
*I *2253:RN I *D DFFR_X1
*I *2117:ZN O *D INV_X1
*CAP
1 *2253:RN 1.402e-05
2 *2117:ZN 1.402e-05
3 *2253:RN *61:179 1.91954e-06
4 *2253:RN *191:18 1.75939e-05
*RES
1 *2117:ZN *2253:RN 11.75 
*END

*D_NET *5 8.48729e-05
*CONN
*I *2252:RN I *D DFFR_X1
*I *2118:ZN O *D INV_X1
*CAP
1 *2252:RN 4.24364e-05
2 *2118:ZN 4.24364e-05
3 *2252:RN *1539:A 0
4 *2252:RN *1236:8 0
*RES
1 *2118:ZN *2252:RN 14.1786 
*END

*D_NET *6 0.000106406
*CONN
*I *2251:RN I *D DFFR_X1
*I *2119:ZN O *D INV_X1
*CAP
1 *2251:RN 4.92638e-05
2 *2119:ZN 4.92638e-05
3 *2251:RN *2251:D 0
4 *2251:RN *524:37 7.87807e-06
*RES
1 *2119:ZN *2251:RN 15.25 
*END

*D_NET *7 8.62886e-05
*CONN
*I *2250:RN I *D DFFR_X1
*I *2120:ZN O *D INV_X1
*CAP
1 *2250:RN 2.48443e-05
2 *2120:ZN 2.48443e-05
3 *2250:RN *1960:A 3.1962e-06
4 *2250:RN *61:92 3.34038e-05
*RES
1 *2120:ZN *2250:RN 13.25 
*END

*D_NET *8 0.000124532
*CONN
*I *2249:RN I *D DFFR_X1
*I *2121:ZN O *D INV_X1
*CAP
1 *2249:RN 6.22661e-05
2 *2121:ZN 6.22661e-05
3 *2249:RN *766:28 0
4 *2249:RN *1248:10 0
*RES
1 *2121:ZN *2249:RN 16.1786 
*END

*D_NET *9 4.03649e-05
*CONN
*I *2248:RN I *D DFFR_X1
*I *2122:ZN O *D INV_X1
*CAP
1 *2248:RN 1.92227e-05
2 *2122:ZN 1.92227e-05
3 *2248:RN *61:69 0
4 *2248:RN *766:18 1.91954e-06
*RES
1 *2122:ZN *2248:RN 11.75 
*END

*D_NET *10 6.50176e-05
*CONN
*I *2247:RN I *D DFFR_X1
*I *2123:ZN O *D INV_X1
*CAP
1 *2247:RN 2.33473e-05
2 *2123:ZN 2.33473e-05
3 *2247:RN *2123:A 7.29164e-07
4 *2247:RN *61:65 1.75939e-05
5 *2247:RN *1418:81 0
*RES
1 *2123:ZN *2247:RN 12.6786 
*END

*D_NET *11 5.67229e-05
*CONN
*I *2246:RN I *D DFFR_X1
*I *2124:ZN O *D INV_X1
*CAP
1 *2246:RN 2.74017e-05
2 *2124:ZN 2.74017e-05
3 *2246:RN *95:16 1.91954e-06
4 *2246:RN *1418:90 0
*RES
1 *2124:ZN *2246:RN 12.6786 
*END

*D_NET *12 3.92968e-05
*CONN
*I *2245:RN I *D DFFR_X1
*I *2125:ZN O *D INV_X1
*CAP
1 *2245:RN 1.96484e-05
2 *2125:ZN 1.96484e-05
3 *2245:RN *1244:6 0
*RES
1 *2125:ZN *2245:RN 11.75 
*END

*D_NET *13 0.000136788
*CONN
*I *2244:RN I *D DFFR_X1
*I *2126:ZN O *D INV_X1
*CAP
1 *2244:RN 5.67932e-05
2 *2126:ZN 5.67932e-05
3 *2244:RN *2000:A 0
4 *2244:RN *61:42 2.09579e-05
5 *2244:RN *524:302 2.24327e-06
*RES
1 *2126:ZN *2244:RN 16.1786 
*END

*D_NET *14 8.75046e-05
*CONN
*I *2243:RN I *D DFFR_X1
*I *2127:ZN O *D INV_X1
*CAP
1 *2243:RN 3.67425e-05
2 *2127:ZN 3.67425e-05
3 *2243:RN *2127:A 1.40196e-05
4 *2243:RN *1242:8 0
*RES
1 *2127:ZN *2243:RN 14.1786 
*END

*D_NET *15 0.000132907
*CONN
*I *2242:RN I *D DFFR_X1
*I *2128:ZN O *D INV_X1
*CAP
1 *2242:RN 3.83823e-05
2 *2128:ZN 3.83823e-05
3 *2242:RN *1857:A 0
4 *2242:RN *1871:B1 5.61423e-05
5 *2242:RN *1231:31 0
6 *2242:RN *1241:10 0
*RES
1 *2128:ZN *2242:RN 15.25 
*END

*D_NET *16 0.000118079
*CONN
*I *2241:RN I *D DFFR_X1
*I *2129:ZN O *D INV_X1
*CAP
1 *2241:RN 4.26064e-05
2 *2129:ZN 4.26064e-05
3 *2241:RN *2104:A2 0
4 *2241:RN *61:30 3.28663e-05
*RES
1 *2129:ZN *2241:RN 14.8571 
*END

*D_NET *17 4.31314e-05
*CONN
*I *2237:RN I *D DFFR_X1
*I *2147:ZN O *D INV_X1
*CAP
1 *2237:RN 2.15657e-05
2 *2147:ZN 2.15657e-05
3 *2237:RN *1926:A 0
*RES
1 *2147:ZN *2237:RN 11.75 
*END

*D_NET *18 4.75535e-05
*CONN
*I *2235:RN I *D DFFR_X1
*I *2148:ZN O *D INV_X1
*CAP
1 *2235:RN 1.49798e-05
2 *2148:ZN 1.49798e-05
3 *2235:RN *61:14 1.75939e-05
*RES
1 *2148:ZN *2235:RN 11.75 
*END

*D_NET *19 5.94809e-05
*CONN
*I *2234:RN I *D DFFR_X1
*I *2149:ZN O *D INV_X1
*CAP
1 *2234:RN 2.93188e-05
2 *2149:ZN 2.93188e-05
3 *2234:RN *1769:A 0
4 *2234:RN *1258:27 8.43215e-07
*RES
1 *2149:ZN *2234:RN 12.6786 
*END

*D_NET *20 0.000137979
*CONN
*I *2231:RN I *D DFFR_X1
*I *2150:ZN O *D INV_X1
*CAP
1 *2231:RN 6.41974e-05
2 *2150:ZN 6.41974e-05
3 *2231:RN *1905:A2 0
4 *2231:RN *2158:A 9.58404e-06
*RES
1 *2150:ZN *2231:RN 16.8571 
*END

*D_NET *21 0.000123542
*CONN
*I *2230:RN I *D DFFR_X1
*I *2151:ZN O *D INV_X1
*CAP
1 *2230:RN 4.36192e-05
2 *2151:ZN 4.36192e-05
3 *2230:RN *1888:A1 2.50666e-06
4 *2230:RN *2229:CK 3.37965e-05
*RES
1 *2151:ZN *2230:RN 15.1786 
*END

*D_NET *22 0.000109237
*CONN
*I *2229:RN I *D DFFR_X1
*I *2152:ZN O *D INV_X1
*CAP
1 *2229:RN 5.46187e-05
2 *2152:ZN 5.46187e-05
3 *2229:RN *1888:A1 0
4 *2229:RN *1897:B2 0
5 *2229:RN *1899:A1 0
6 *2229:RN *97:17 0
*RES
1 *2152:ZN *2229:RN 15.25 
*END

*D_NET *23 9.20783e-05
*CONN
*I *2228:RN I *D DFFR_X1
*I *2153:ZN O *D INV_X1
*CAP
1 *2228:RN 3.96848e-05
2 *2153:ZN 3.96848e-05
3 *2228:RN *1258:27 1.27088e-05
*RES
1 *2153:ZN *2228:RN 14.1786 
*END

*D_NET *24 0.000116449
*CONN
*I *2227:RN I *D DFFR_X1
*I *2154:ZN O *D INV_X1
*CAP
1 *2227:RN 4.15227e-05
2 *2154:ZN 4.15227e-05
3 *2227:RN *2154:A 3.34038e-05
4 *2227:RN *60:51 0
*RES
1 *2154:ZN *2227:RN 14.8571 
*END

*D_NET *25 4.39083e-05
*CONN
*I *2226:RN I *D DFFR_X1
*I *2155:ZN O *D INV_X1
*CAP
1 *2226:RN 1.79233e-05
2 *2155:ZN 1.79233e-05
3 *2226:RN *1890:A1 9.66611e-07
4 *2226:RN *2155:A 7.09501e-06
*RES
1 *2155:ZN *2226:RN 11.75 
*END

*D_NET *26 5.85198e-05
*CONN
*I *2225:RN I *D DFFR_X1
*I *2156:ZN O *D INV_X1
*CAP
1 *2225:RN 2.502e-05
2 *2156:ZN 2.502e-05
3 *2225:RN *2131:A1 0
4 *2225:RN *763:12 8.47982e-06
*RES
1 *2156:ZN *2225:RN 12.6786 
*END

*D_NET *27 6.00421e-05
*CONN
*I *2240:RN I *D DFFR_X1
*I *2157:ZN O *D INV_X1
*CAP
1 *2240:RN 2.4299e-05
2 *2157:ZN 2.4299e-05
3 *2240:RN *2157:A 4.09256e-06
4 *2240:D *2240:RN 7.35149e-06
*RES
1 *2157:ZN *2240:RN 12.6786 
*END

*D_NET *28 0.000166176
*CONN
*I *2232:RN I *D DFFR_X1
*I *2158:ZN O *D INV_X1
*CAP
1 *2232:RN 6.6297e-05
2 *2158:ZN 6.6297e-05
3 *2232:RN *1885:B2 3.35822e-05
4 *2232:RN *2232:D 0
*RES
1 *2158:ZN *2232:RN 17.5357 
*END

*D_NET *29 0.000154111
*CONN
*I *2233:RN I *D DFFR_X1
*I *2159:ZN O *D INV_X1
*CAP
1 *2233:RN 3.4892e-05
2 *2159:ZN 3.4892e-05
3 *2233:RN *1880:A 5.39184e-05
4 *2233:RN *1881:A 1.63351e-05
5 *2233:RN *1258:113 9.30167e-06
6 *2233:RN *1420:62 4.77184e-06
*RES
1 *2159:ZN *2233:RN 24.7143 
*END

*D_NET *30 0.000124243
*CONN
*I *2256:RN I *D DFFR_X1
*I *2160:ZN O *D INV_X1
*CAP
1 *2256:RN 4.25901e-05
2 *2160:ZN 4.25901e-05
3 *2256:RN *61:153 3.90626e-05
*RES
1 *2160:ZN *2256:RN 15.25 
*END

*D_NET *31 0.000168314
*CONN
*I *2239:SN I *D DFFS_X1
*I *2165:ZN O *D INV_X1
*CAP
1 *2239:SN 6.86356e-05
2 *2165:ZN 6.86356e-05
3 *2239:SN *1258:117 0
4 *2239:SN *1420:49 2.82896e-05
5 *2239:SN *1420:62 2.75346e-06
*RES
1 *2165:ZN *2239:SN 17.6429 
*END

*D_NET *32 0.000125244
*CONN
*I *2257:RN I *D DFFR_X1
*I *2166:ZN O *D INV_X1
*CAP
1 *2257:RN 5.78301e-05
2 *2166:ZN 5.78301e-05
3 *2257:RN *1258:119 9.58404e-06
*RES
1 *2166:ZN *2257:RN 16.1786 
*END

*D_NET *33 0.000122406
*CONN
*I *2236:RN I *D DFFR_X1
*I *2167:ZN O *D INV_X1
*CAP
1 *2236:RN 6.12031e-05
2 *2167:ZN 6.12031e-05
3 *2236:RN *2236:D 0
4 *2236:RN *61:24 0
5 *2236:RN *762:39 0
*RES
1 *2167:ZN *2236:RN 16.1786 
*END

*D_NET *34 0.000123722
*CONN
*I *2238:RN I *D DFFR_X1
*I *2168:ZN O *D INV_X1
*CAP
1 *2238:RN 4.12945e-05
2 *2168:ZN 4.12945e-05
3 *2238:RN *1600:A 2.00179e-05
4 *2238:RN *2168:A 1.70588e-05
5 *2238:RN *2170:A 3.09411e-06
6 *2238:RN *520:49 9.62051e-07
7 *2238:RN *524:159 0
*RES
1 *2168:ZN *2238:RN 15.25 
*END

*D_NET *35 0.000324324
*CONN
*I *2237:D I *D DFFR_X1
*I *1927:ZN O *D AOI21_X1
*CAP
1 *2237:D 0.000129186
2 *1927:ZN 0.000129186
3 *2237:D *1843:A 0
4 *2237:D *1925:B1 4.62385e-05
5 *2237:D *1926:A 1.97139e-05
6 *2237:D *61:256 0
*RES
1 *1927:ZN *2237:D 35.1071 
*END

*D_NET *36 0.000155869
*CONN
*I *2235:D I *D DFFR_X1
*I *1921:ZN O *D AOI21_X1
*CAP
1 *2235:D 6.69289e-05
2 *1921:ZN 6.69289e-05
3 *2235:D *1767:B2 7.16188e-07
4 *2235:D *1921:B2 1.76415e-05
5 *2235:D *2235:CK 3.65322e-06
6 *2235:D *61:14 0
*RES
1 *1921:ZN *2235:D 27.5714 
*END

*D_NET *37 0.000102472
*CONN
*I *2234:D I *D DFFR_X1
*I *1913:ZN O *D AOI21_X1
*CAP
1 *2234:D 5.12361e-05
2 *1913:ZN 5.12361e-05
*RES
1 *1913:ZN *2234:D 15.1071 
*END

*D_NET *38 0.000359587
*CONN
*I *2231:D I *D DFFR_X1
*I *1907:ZN O *D AOI21_X1
*CAP
1 *2231:D 0.00013552
2 *1907:ZN 0.00013552
3 *2231:D *1903:B2 2.94455e-05
4 *2231:D *1907:B1 1.32348e-05
5 *2231:D *204:43 2.39679e-06
6 *2231:D *204:50 1.32348e-05
7 *2231:D *1258:180 0
8 *2231:D *1265:8 3.02351e-05
*RES
1 *1907:ZN *2231:D 35.0714 
*END

*D_NET *39 0.00034272
*CONN
*I *2230:D I *D DFFR_X1
*I *1904:ZN O *D AOI21_X1
*CAP
1 *2230:D 9.67894e-05
2 *1904:ZN 9.67894e-05
3 *2230:D *1902:A1 8.14262e-05
4 *2230:D *1904:A 6.73424e-06
5 *2230:D *2229:CK 1.62708e-06
6 *2230:D *204:93 5.20822e-05
7 *2230:D *763:31 7.27186e-06
*RES
1 *1904:ZN *2230:D 32.4643 
*END

*D_NET *40 0.000260626
*CONN
*I *2229:D I *D DFFR_X1
*I *1901:ZN O *D AOI21_X1
*CAP
1 *2229:D 8.18292e-05
2 *1901:ZN 8.18292e-05
3 *2229:D *1900:A2 3.09411e-06
4 *2229:D *1900:B2 0
5 *2229:D *1901:B1 4.33476e-05
6 *2229:D *2229:CK 2.23415e-06
7 *2229:D *97:19 3.50591e-05
8 *2229:D *204:108 1.32323e-05
*RES
1 *1901:ZN *2229:D 30.5714 
*END

*D_NET *41 0.000185262
*CONN
*I *2228:D I *D DFFR_X1
*I *1898:ZN O *D AOI21_X1
*CAP
1 *2228:D 5.69537e-05
2 *1898:ZN 5.69537e-05
3 *2228:D *1258:42 3.65659e-06
4 *2228:D *1258:57 0
5 *2228:D *1262:8 3.54727e-05
6 *2228:D *1421:31 2.52965e-06
7 *2228:D *1421:35 2.96955e-05
*RES
1 *1898:ZN *2228:D 27.6071 
*END

*D_NET *42 0.00018946
*CONN
*I *2227:D I *D DFFR_X1
*I *1895:ZN O *D AOI21_X1
*CAP
1 *2227:D 4.33671e-05
2 *1895:ZN 4.33671e-05
3 *2227:D *60:51 4.78054e-06
4 *2227:D *1261:8 9.44188e-05
5 *2227:D *1421:14 4.32144e-07
6 *2227:D *1421:31 3.09411e-06
*RES
1 *1895:ZN *2227:D 26.25 
*END

*D_NET *43 0.000139191
*CONN
*I *2226:D I *D DFFR_X1
*I *1892:ZN O *D AOI21_X1
*CAP
1 *2226:D 3.7929e-05
2 *1892:ZN 3.7929e-05
3 *2226:D *1888:B2 1.39294e-06
4 *2226:D *2155:A 0
5 *2226:D *98:33 2.25683e-05
6 *2226:D *204:12 6.32461e-06
7 *2226:D *204:16 3.30471e-05
*RES
1 *1892:ZN *2226:D 24.8571 
*END

*D_NET *44 0.000356104
*CONN
*I *2225:D I *D DFFR_X1
*I *1889:ZN O *D AOI21_X1
*CAP
1 *2225:D 0.000138521
2 *1889:ZN 0.000138521
3 *2225:D *2225:CK 1.15841e-05
4 *2225:D *204:18 5.7416e-06
5 *2225:D *204:24 5.52934e-05
6 *2225:D *532:36 0
7 *2225:D *1258:94 6.44217e-06
*RES
1 *1889:ZN *2225:D 37.75 
*END

*D_NET *45 0.00029264
*CONN
*I *2232:D I *D DFFR_X1
*I *1886:ZN O *D AOI21_X1
*CAP
1 *2232:D 0.000134572
2 *1886:ZN 0.000134572
3 *2232:D *1885:B2 4.29258e-06
4 *2232:D *1886:B1 1.11168e-06
5 *2232:D *1886:B2 6.50827e-06
6 *2232:D *2232:CK 1.15841e-05
7 *2232:RN *2232:D 0
*RES
1 *1886:ZN *2232:D 33.6786 
*END

*D_NET *46 0.000437177
*CONN
*I *2233:D I *D DFFR_X1
*I *1881:Z O *D MUX2_X1
*CAP
1 *2233:D 8.85408e-05
2 *1881:Z 8.85408e-05
3 *2233:D busy 0.000117477
4 *2233:D *1880:A 0
5 *2233:D *1880:S 0
6 *2233:D *1881:A 2.87248e-06
7 *2233:D *1881:B 4.77787e-06
8 *2233:D *532:23 0
9 *2233:D *1232:8 5.56848e-05
10 *2233:D *1420:62 7.9283e-05
*RES
1 *1881:Z *2233:D 32.8214 
*END

*D_NET *47 9.83675e-05
*CONN
*I *2236:D I *D DFFR_X1
*I *1879:ZN O *D AOI21_X1
*CAP
1 *2236:D 3.38325e-05
2 *1879:ZN 3.38325e-05
3 *2236:D *762:39 3.07024e-05
4 *2236:RN *2236:D 0
*RES
1 *1879:ZN *2236:D 14.1786 
*END

*D_NET *48 0.000628258
*CONN
*I *2238:D I *D DFFR_X1
*I *1843:ZN O *D AOI21_X1
*CAP
1 *2238:D 0.000232136
2 *1843:ZN 0.000232136
3 *2238:D *1843:B2 2.79011e-05
4 *2238:D *2168:A 1.46241e-05
5 *2238:D *2170:A 1.16067e-05
6 *2238:D *95:14 0
7 *2238:D *95:131 1.06148e-05
8 *2238:D *516:37 1.93934e-05
9 *2238:D *1270:8 2.29122e-05
10 *2238:D *1270:30 6.03486e-06
11 *2238:D *1270:53 1.39319e-05
12 *2238:D *1270:68 3.69673e-05
*RES
1 *1843:ZN *2238:D 48.75 
*END

*D_NET *49 0.00042325
*CONN
*I *1915:A1 I *D NAND2_X1
*I *1870:B2 I *D AOI21_X4
*I *1869:ZN O *D OAI21_X2
*CAP
1 *1915:A1 0
2 *1870:B2 3.8871e-05
3 *1869:ZN 8.68238e-05
4 *49:12 0.000125695
5 *1870:B2 *1870:B1 1.75797e-05
6 *1870:B2 *786:10 8.43215e-07
7 *49:12 *1870:A 5.52692e-06
8 *49:12 *1870:B1 2.39679e-06
9 *49:12 *1916:A 2.99872e-05
10 *49:12 *61:24 0
11 *49:12 *85:6 9.62051e-07
12 *49:12 *780:8 1.48912e-05
13 *49:12 *786:10 9.96734e-05
*RES
1 *1869:ZN *49:12 27.0357 
2 *49:12 *1870:B2 9.25 
3 *49:12 *1915:A1 5 
*END

*D_NET *50 0.00102863
*CONN
*I *1871:B2 I *D OAI21_X4
*I *1872:A1 I *D OR3_X1
*I *1870:ZN O *D AOI21_X4
*CAP
1 *1871:B2 2.12604e-05
2 *1872:A1 2.53567e-05
3 *1870:ZN 0.000354207
4 *50:14 0.000400824
5 *1871:B2 *1873:A2 8.12996e-06
6 *1871:B2 *1234:16 1.03423e-05
7 *1872:A1 *1871:A 4.26368e-05
8 *1872:A1 *1872:A2 4.26368e-05
9 *50:14 *1873:A2 8.00078e-06
10 *50:14 *2107:A2 9.74263e-06
11 *50:14 *2110:A 0
12 *50:14 *2242:D 0
13 *50:14 *2242:CK 2.9325e-05
14 *50:14 *2243:CK 5.71471e-05
15 *50:14 *51:12 0
16 *50:14 *53:27 0
17 *50:14 *1234:16 1.90192e-05
18 *50:14 *1234:58 0
*RES
1 *1870:ZN *50:14 48.8929 
2 *50:14 *1872:A1 14.25 
3 *50:14 *1871:B2 12.9643 
*END

*D_NET *51 0.00104085
*CONN
*I *2098:A1 I *D NAND2_X1
*I *1873:A1 I *D AND2_X1
*I *2003:B2 I *D AOI21_X4
*I *1871:ZN O *D OAI21_X4
*CAP
1 *2098:A1 3.20482e-05
2 *1873:A1 0
3 *2003:B2 0.000273654
4 *1871:ZN 6.16762e-05
5 *51:12 0.000303282
6 *2003:B2 *1873:A2 3.41146e-05
7 *2003:B2 *1998:A1 0
8 *2003:B2 *2103:A1 1.11714e-05
9 *2003:B2 *2106:B1 0
10 *2003:B2 *95:251 0
11 *2003:B2 *511:149 1.07429e-05
12 *2003:B2 *1327:14 0
13 *2098:A1 *1854:A 1.32311e-05
14 *2098:A1 *2002:B2 8.06346e-05
15 *2098:A1 *2098:A2 8.43215e-07
16 *51:12 *1873:A2 2.75346e-06
17 *51:12 *53:8 4.32319e-05
18 *51:12 *511:149 1.86809e-06
19 *51:12 *1234:16 0.000171599
20 *50:14 *51:12 0
*RES
1 *1871:ZN *51:12 25.3214 
2 *51:12 *2003:B2 30.1786 
3 *51:12 *1873:A1 5 
4 *2003:B2 *2098:A1 25.0714 
*END

*D_NET *52 0.000329153
*CONN
*I *1873:A2 I *D AND2_X1
*I *1872:ZN O *D OR3_X1
*CAP
1 *1873:A2 0.000103553
2 *1872:ZN 0.000103553
3 *1873:A2 *2243:CK 0
4 *1873:A2 *61:227 6.90478e-05
5 *1873:A2 *1234:16 0
6 *1871:B2 *1873:A2 8.12996e-06
7 *2003:B2 *1873:A2 3.41146e-05
8 *50:14 *1873:A2 8.00078e-06
9 *51:12 *1873:A2 2.75346e-06
*RES
1 *1872:ZN *1873:A2 34.3571 
*END

*D_NET *53 0.00114796
*CONN
*I *1874:A I *D INV_X1
*I *2104:A2 I *D NOR2_X1
*I *1873:ZN O *D AND2_X1
*CAP
1 *1874:A 1.85319e-05
2 *2104:A2 8.96885e-05
3 *1873:ZN 1.8914e-05
4 *53:27 0.000271409
5 *53:8 0.00036148
6 *1874:A *79:16 1.03979e-05
7 *1874:A *1421:71 0
8 *2104:A2 *2109:B1 0
9 *2104:A2 *511:140 8.43215e-07
10 *2104:A2 *511:149 1.20769e-05
11 *2104:A2 *1234:16 2.57909e-05
12 *53:8 *1234:16 2.91785e-06
13 *53:27 *2108:A1 1.39607e-05
14 *53:27 *2109:A 2.99187e-06
15 *53:27 *2109:B2 6.11056e-05
16 *53:27 *2110:B2 5.13479e-05
17 *53:27 *511:149 3.7878e-05
18 *53:27 *511:153 0
19 *53:27 *1421:84 0.000125393
20 *2241:RN *2104:A2 0
21 *50:14 *53:27 0
22 *51:12 *53:8 4.32319e-05
*RES
1 *1873:ZN *53:8 12.9643 
2 *53:8 *2104:A2 19.8929 
3 *53:8 *53:27 45.5714 
4 *53:27 *1874:A 12.25 
*END

*D_NET *54 0.000206134
*CONN
*I *1875:B1 I *D AOI21_X1
*I *1874:ZN O *D INV_X1
*CAP
1 *1875:B1 9.53252e-05
2 *1874:ZN 9.53252e-05
3 *1875:B1 *1875:A 2.75346e-06
4 *1875:B1 *1875:B2 1.21774e-06
5 *1875:B1 *2236:CK 0
6 *1875:B1 *79:16 1.15127e-05
7 *1875:B1 *1421:71 0
*RES
1 *1874:ZN *1875:B1 19.6786 
*END

*D_NET *55 0.000148256
*CONN
*I *1877:B I *D AOI211_X1
*I *1875:ZN O *D AOI21_X1
*CAP
1 *1877:B 3.42896e-05
2 *1875:ZN 3.42896e-05
3 *1877:B *1877:A 7.72792e-06
4 *1877:B *1877:C2 1.83053e-06
5 *1877:B *2107:A2 0
6 *1877:B *79:16 1.68643e-06
7 *1877:B *762:10 1.72426e-05
8 *1877:B *762:25 5.1189e-05
*RES
1 *1875:ZN *1877:B 24.8929 
*END

*D_NET *56 0.000501369
*CONN
*I *2137:B I *D XOR2_X1
*I *2754:Z O *D LOGIC0_X1
*CAP
1 *2137:B 0.000185576
2 *2754:Z 0.000185576
3 *2137:B *1741:B 5.23292e-05
4 *2137:B *1742:A 0
5 *2137:B *1750:A 0
6 *2137:B *2138:B 7.78888e-05
*RES
1 *2754:Z *2137:B 43.8214 
*END

*D_NET *57 0.000298356
*CONN
*I *1879:A I *D AOI21_X1
*I *1877:ZN O *D AOI211_X1
*CAP
1 *1879:A 0.000116219
2 *1877:ZN 0.000116219
3 *1879:A *1879:B2 2.8603e-05
4 *1879:A *762:10 7.66675e-07
5 *1879:A *762:25 3.42974e-05
6 *1879:A *762:39 2.25089e-06
*RES
1 *1877:ZN *1879:A 32.8571 
*END

*D_NET *58 0.000335588
*CONN
*I *1879:B2 I *D AOI21_X1
*I *1878:ZN O *D INV_X1
*CAP
1 *1879:B2 9.92633e-05
2 *1878:ZN 9.92633e-05
3 *1879:B2 *1878:A 3.37215e-05
4 *1879:B2 *2108:A2 0
5 *1879:B2 *61:24 4.29063e-05
6 *1879:B2 *61:28 1.59582e-06
7 *1879:B2 *762:25 3.02351e-05
8 *1879:B2 *1231:8 0
9 *1879:A *1879:B2 2.8603e-05
*RES
1 *1878:ZN *1879:B2 32.1429 
*END

*D_NET *59 0.0003227
*CONN
*I *1881:B I *D MUX2_X1
*I *1880:Z O *D MUX2_X1
*CAP
1 *1881:B 0.000102591
2 *1880:Z 0.000102591
3 *1881:B *1880:A 5.06772e-05
4 *1881:B *1880:S 1.045e-05
5 *1881:B *1881:A 1.45225e-05
6 *1881:B *532:36 1.91582e-05
7 *1881:B *1232:8 1.46266e-05
8 *1881:B *1258:113 3.30475e-06
9 *2233:D *1881:B 4.77787e-06
*RES
1 *1880:Z *1881:B 34.1786 
*END

*D_NET *60 0.00133676
*CONN
*I *1898:B2 I *D AOI21_X1
*I *1896:A2 I *D NOR2_X1
*I *2748:A I *D BUF_X2
*I *1895:B2 I *D AOI21_X1
*I *1893:A2 I *D NOR2_X1
*I *1882:ZN O *D NOR2_X1
*CAP
1 *1898:B2 3.8452e-05
2 *1896:A2 1.16506e-05
3 *2748:A 3.21034e-05
4 *1895:B2 1.23389e-05
5 *1893:A2 3.56794e-05
6 *1882:ZN 0.000182081
7 *60:51 0.000216417
8 *60:18 0.000128351
9 *60:12 0.000170138
10 *60:10 0.000406097
11 *1893:A2 *1891:A2 0
12 *1893:A2 *1891:B2 3.02372e-05
13 *1893:A2 *1893:A1 3.09411e-06
14 *1893:A2 *1261:8 3.84423e-05
15 *1895:B2 *1893:A1 6.48216e-07
16 *1895:B2 *1895:B1 8.43215e-07
17 *1898:B2 *1898:A 5.83614e-06
18 *1898:B2 *1898:B1 8.43215e-07
19 *1898:B2 *1421:31 0
20 *2748:A *1421:14 5.11574e-06
21 *60:10 *1615:A 1.34851e-06
22 *60:10 *1616:A2 0
23 *60:10 *95:162 0
24 *60:12 *1615:A 6.48231e-06
25 *60:18 *1615:A 1.62643e-06
26 *60:18 *1421:14 0
27 *60:51 *1895:B1 0
28 *60:51 *1421:14 0
29 *60:51 *1421:31 4.15825e-06
30 *2227:D *60:51 4.78054e-06
31 *2227:RN *60:51 0
*RES
1 *1882:ZN *60:10 28.2857 
2 *60:10 *60:12 6.35715 
3 *60:12 *60:18 12.8571 
4 *60:18 *1893:A2 19.8929 
5 *60:18 *1895:B2 6.25 
6 *60:12 *2748:A 13.25 
7 *60:10 *60:51 21.25 
8 *60:51 *1896:A2 6.25 
9 *60:51 *1898:B2 9.89286 
*END

*D_NET *61 0.0162233
*CONN
*I *2148:A I *D INV_X1
*I *2167:A I *D INV_X1
*I *2147:A I *D INV_X1
*I *2129:A I *D INV_X1
*I *2127:A I *D INV_X1
*I *2128:A I *D INV_X1
*I *2126:A I *D INV_X1
*I *2160:A I *D INV_X1
*I *2115:A I *D INV_X1
*I *2118:A I *D INV_X1
*I *2116:A I *D INV_X1
*I *2117:A I *D INV_X1
*I *2125:A I *D INV_X1
*I *2123:A I *D INV_X1
*I *2122:A I *D INV_X1
*I *2119:A I *D INV_X1
*I *2120:A I *D INV_X1
*I *2121:A I *D INV_X1
*I *2124:A I *D INV_X1
*I *2753:Z O *D BUF_X4
*CAP
1 *2148:A 0
2 *2167:A 0
3 *2147:A 6.61153e-06
4 *2129:A 0
5 *2127:A 8.49133e-05
6 *2128:A 0.000159803
7 *2126:A 8.71307e-06
8 *2160:A 0
9 *2115:A 0
10 *2118:A 0.000207273
11 *2116:A 0.000124462
12 *2117:A 0
13 *2125:A 8.10055e-06
14 *2123:A 8.36745e-06
15 *2122:A 3.60343e-05
16 *2119:A 0.000197178
17 *2120:A 8.10563e-06
18 *2121:A 0.000291237
19 *2124:A 9.54034e-05
20 *2753:Z 0.000112472
21 *61:256 0.000482364
22 *61:254 0.000475752
23 *61:227 0.000430807
24 *61:179 0.000394501
25 *61:173 0.00059022
26 *61:167 0.000419022
27 *61:165 0.000304341
28 *61:153 0.000419052
29 *61:147 0.00036802
30 *61:92 0.000467162
31 *61:79 0.000834526
32 *61:69 0.000499529
33 *61:65 0.000490067
34 *61:50 0.00065334
35 *61:48 0.000487796
36 *61:42 0.000437856
37 *61:38 0.000536878
38 *61:32 0.000610592
39 *61:30 8.35495e-05
40 *61:28 0.000307497
41 *61:24 0.000534369
42 *61:14 0.0005184
43 *61:10 0.00032045
44 *2116:A *1516:B 1.65484e-05
45 *2116:A *503:8 6.83866e-05
46 *2118:A *1516:B 0
47 *2118:A *1934:A 0
48 *2118:A *1936:A 0
49 *2118:A *99:134 0
50 *2118:A *530:118 0.000350592
51 *2119:A *1960:B 0.000354064
52 *2119:A *2250:CK 0
53 *2119:A *2251:D 0
54 *2119:A *2251:CK 0
55 *2119:A *99:45 5.6231e-05
56 *2120:A *1960:A 0
57 *2121:A *1521:B 0
58 *2121:A *2015:A 9.77674e-06
59 *2121:A *2071:A1 0
60 *2121:A *2072:A 0
61 *2121:A *511:41 0
62 *2121:A *1418:22 0.000158016
63 *2122:A *2075:A1 0.000107663
64 *2122:A *766:20 1.81045e-05
65 *2124:A *2009:A1 6.92212e-05
66 *2124:A *95:16 9.57492e-07
67 *2124:A *152:10 6.38189e-05
68 *2125:A *1244:6 0
69 *2127:A *2103:A1 4.93921e-05
70 *2127:A *772:10 4.42508e-05
71 *2127:A *1327:14 0
72 *2128:A *1871:B1 0.000167181
73 *2128:A *1872:A2 0
74 *2128:A *1241:10 0
75 *2147:A *1926:A 1.91498e-06
76 *61:10 *1770:A2 0
77 *61:14 *1767:B2 6.07323e-06
78 *61:14 *1868:B1 0
79 *61:14 *1908:A 6.17757e-06
80 *61:14 *1920:A 7.87811e-06
81 *61:14 *2235:CK 0
82 *61:24 *1869:B1 0
83 *61:24 *1878:A 1.47939e-05
84 *61:24 *1908:A 6.661e-05
85 *61:24 *1908:B 1.8111e-05
86 *61:24 *2108:A2 9.15133e-06
87 *61:24 *85:6 0
88 *61:24 *786:10 0
89 *61:24 *1231:8 1.34605e-05
90 *61:28 *1878:A 1.07429e-05
91 *61:28 *2109:B1 0
92 *61:28 *2236:CK 0
93 *61:28 *2241:CK 0
94 *61:28 *1421:71 0
95 *61:30 *2109:B1 0
96 *61:30 *2241:CK 0
97 *61:30 *524:311 4.4061e-05
98 *61:38 *1998:A2 1.32323e-05
99 *61:38 *1999:A2 3.09411e-06
100 *61:38 *2113:B1 0
101 *61:38 *95:240 0
102 *61:38 *524:302 0
103 *61:38 *524:311 0
104 *61:38 *530:196 0
105 *61:38 *766:163 0
106 *61:42 *2000:A 0
107 *61:42 *2244:D 6.48216e-07
108 *61:42 *95:267 0
109 *61:42 *524:302 0
110 *61:48 *1995:A 0
111 *61:48 *2096:A 0
112 *61:48 *494:18 0.000246093
113 *61:48 *1243:10 0
114 *61:48 *1243:12 0
115 *61:48 *1243:14 0
116 *61:50 *1990:A 5.78021e-05
117 *61:50 *152:10 6.32461e-06
118 *61:65 *2081:A1 4.79658e-06
119 *61:65 *1245:8 0
120 *61:65 *1418:81 0
121 *61:65 *1418:90 0
122 *61:69 *2248:D 2.42487e-05
123 *61:69 *1418:10 0
124 *61:69 *1418:16 4.31693e-05
125 *61:69 *1418:20 7.62134e-05
126 *61:69 *1418:81 0
127 *61:79 *1521:B 0
128 *61:79 *1528:B 0
129 *61:79 *1529:A1 1.19839e-05
130 *61:79 *1529:A2 4.32144e-07
131 *61:79 *1532:A2 0
132 *61:79 *1533:A2 0
133 *61:79 *2075:A1 0.000132861
134 *61:79 *95:34 2.93996e-05
135 *61:79 *530:60 4.32759e-06
136 *61:79 *766:20 2.22852e-05
137 *61:79 *1418:20 0
138 *61:79 *1418:22 5.86754e-06
139 *61:92 *1521:A 0
140 *61:92 *1522:A 0
141 *61:92 *1522:B 1.37673e-05
142 *61:92 *1525:A1 3.83453e-06
143 *61:92 *1960:A 0
144 *61:92 *2250:D 0
145 *61:92 *95:34 6.79219e-05
146 *61:92 *440:12 3.63331e-05
147 *61:92 *441:10 0
148 *61:92 *530:64 4.32144e-07
149 *61:92 *1249:20 0
150 *61:147 *2097:A2 1.66988e-05
151 *61:147 *494:18 0.000290617
152 *61:147 *1243:10 0
153 *61:153 *1929:A2 0.000108189
154 *61:153 *2133:A1 1.32348e-05
155 *61:153 *2146:A 2.89166e-05
156 *61:153 *2256:D 1.40012e-05
157 *61:153 *95:282 0.000207599
158 *61:153 *530:221 6.707e-06
159 *61:165 *1929:A1 0
160 *61:165 *524:248 2.18572e-05
161 *61:165 *530:221 6.11168e-05
162 *61:165 *1419:66 0
163 *61:167 *1936:A 3.27005e-06
164 *61:167 *1936:B 0
165 *61:167 *1937:A 0
166 *61:167 *1937:B 0
167 *61:167 *2026:A1 0
168 *61:167 *2026:A2 9.57948e-06
169 *61:167 *95:83 1.15127e-05
170 *61:167 *1419:66 0
171 *61:173 *1516:B 2.09871e-05
172 *61:173 *1937:A 0
173 *61:173 *95:83 9.9032e-06
174 *61:173 *503:8 1.25407e-05
175 *61:179 *1937:A 0
176 *61:179 *2025:B1 0
177 *61:179 *2042:A3 0
178 *61:179 *2046:A 3.19164e-07
179 *61:179 *2046:B1 2.61469e-06
180 *61:179 *2046:B2 3.90891e-05
181 *61:179 *2253:D 5.52959e-06
182 *61:179 *2253:CK 5.71759e-05
183 *61:179 *95:83 0
184 *61:179 *104:8 0
185 *61:179 *191:18 0
186 *61:227 *1871:A 4.16485e-05
187 *61:227 *2109:B1 0
188 *61:227 *2111:A1 0
189 *61:227 *511:140 0.00016106
190 *61:227 *772:10 6.92191e-05
191 *61:227 *1234:16 0
192 *61:227 *1327:14 0
193 *61:256 *1841:C2 0
194 *61:256 *1925:B1 0
195 *61:256 *1927:A 0
196 *61:256 *2111:A1 0
197 *61:256 *2114:A 0
198 *61:256 *2241:D 0
199 *61:256 *95:131 9.93898e-05
200 *61:256 *95:230 4.82613e-05
201 *61:256 *511:153 0
202 *61:256 *511:155 0
203 *61:256 *511:157 0
204 *61:256 *511:159 0
205 *61:256 *511:167 0
206 *1873:A2 *61:227 6.90478e-05
207 *1879:B2 *61:24 4.29063e-05
208 *1879:B2 *61:28 1.59582e-06
209 *2235:D *61:14 0
210 *2235:RN *61:14 1.75939e-05
211 *2236:RN *61:24 0
212 *2237:D *61:256 0
213 *2241:RN *61:30 3.28663e-05
214 *2243:RN *2127:A 1.40196e-05
215 *2244:RN *61:42 2.09579e-05
216 *2247:RN *2123:A 7.29164e-07
217 *2247:RN *61:65 1.75939e-05
218 *2248:RN *61:69 0
219 *2250:RN *61:92 3.34038e-05
220 *2253:RN *61:179 1.91954e-06
221 *2255:RN *61:165 1.75939e-05
222 *2256:RN *61:153 3.90626e-05
223 *49:12 *61:24 0
*RES
1 *2753:Z *61:10 16.2857 
2 *61:10 *61:14 21.8572 
3 *61:14 *61:24 46.1786 
4 *61:24 *61:28 21.6786 
5 *61:28 *61:30 9.75 
6 *61:30 *61:32 5 
7 *61:32 *61:38 46.4286 
8 *61:38 *61:42 15.25 
9 *61:42 *61:48 26.3572 
10 *61:48 *61:50 31.4643 
11 *61:50 *2124:A 23.2143 
12 *61:50 *61:65 34.75 
13 *61:65 *61:69 26.25 
14 *61:69 *61:79 42.3929 
15 *61:79 *2121:A 47.5714 
16 *61:79 *61:92 34.75 
17 *61:92 *2120:A 5.75 
18 *61:92 *2119:A 44.5 
19 *61:69 *2122:A 16.9286 
20 *61:65 *2123:A 5.92857 
21 *61:48 *2125:A 10.75 
22 *61:42 *61:147 22.5357 
23 *61:147 *61:153 36.1072 
24 *61:153 *61:165 29.2143 
25 *61:165 *61:167 14.75 
26 *61:167 *61:173 13.7143 
27 *61:173 *61:179 47.5357 
28 *61:179 *2117:A 5 
29 *61:173 *2116:A 26.5357 
30 *61:167 *2118:A 42.3929 
31 *61:165 *2115:A 5 
32 *61:153 *2160:A 5 
33 *61:38 *2126:A 5.92857 
34 *61:32 *61:227 27.0357 
35 *61:227 *2128:A 29.75 
36 *61:227 *2127:A 21.6786 
37 *61:30 *2129:A 5 
38 *61:28 *61:254 5 
39 *61:254 *61:256 56.5715 
40 *61:256 *2147:A 10.75 
41 *61:24 *2167:A 5 
42 *61:10 *2148:A 5 
*END

*D_NET *62 0.000202857
*CONN
*I *1886:A I *D AOI21_X1
*I *1884:ZN O *D NOR2_X1
*CAP
1 *1886:A 4.42366e-05
2 *1884:ZN 4.42366e-05
3 *1886:A *1886:B1 5.54369e-05
4 *1886:A *1886:B2 2.14856e-06
5 *1886:A *1907:B1 2.80752e-05
6 *1886:A *204:50 2.87234e-05
*RES
1 *1884:ZN *1886:A 26.4643 
*END

*D_NET *63 0.000394557
*CONN
*I *1886:B1 I *D AOI21_X1
*I *1885:ZN O *D AOI22_X1
*CAP
1 *1886:B1 0.000152046
2 *1885:ZN 0.000152046
3 *1886:B1 *1885:B2 0
4 *1886:B1 *1886:B2 3.34048e-07
5 *1886:B1 *1906:A2 0
6 *1886:B1 *1906:B1 0
7 *1886:B1 *763:31 3.35822e-05
8 *1886:A *1886:B1 5.54369e-05
9 *2232:D *1886:B1 1.11168e-06
*RES
1 *1885:ZN *1886:B1 36.3929 
*END

*D_NET *64 0.000115935
*CONN
*I *1889:A I *D AOI21_X1
*I *1887:ZN O *D NOR2_X1
*CAP
1 *1889:A 5.10161e-05
2 *1887:ZN 5.10161e-05
3 *1889:A *1887:A1 0
4 *1889:A *1887:A2 1.15057e-05
5 *1889:A *1889:B1 2.39679e-06
6 *1889:A *97:8 0
*RES
1 *1887:ZN *1889:A 15.1071 
*END

*D_NET *65 0.000159108
*CONN
*I *1889:B1 I *D AOI21_X1
*I *1888:ZN O *D AOI22_X1
*CAP
1 *1889:B1 7.36988e-05
2 *1888:ZN 7.36988e-05
3 *1889:B1 *1887:A2 8.43215e-07
4 *1889:B1 *1888:B1 2.39679e-06
5 *1889:B1 *97:8 6.07323e-06
6 *1889:A *1889:B1 2.39679e-06
*RES
1 *1888:ZN *1889:B1 17.6071 
*END

*D_NET *66 0.000231727
*CONN
*I *1892:A I *D AOI21_X1
*I *1890:ZN O *D NOR2_X1
*CAP
1 *1892:A 7.10661e-05
2 *1890:ZN 7.10661e-05
3 *1892:A *1890:A1 4.93938e-05
4 *1892:A *1892:B1 2.75346e-06
5 *1892:A *1892:B2 1.87637e-06
6 *1892:A *204:16 3.55708e-05
*RES
1 *1890:ZN *1892:A 19.25 
*END

*D_NET *67 0.000198944
*CONN
*I *1892:B1 I *D AOI21_X1
*I *1891:ZN O *D AOI22_X1
*CAP
1 *1892:B1 8.5778e-05
2 *1891:ZN 8.5778e-05
3 *1892:B1 *1891:A1 1.76665e-06
4 *1892:B1 *1892:B2 2.75346e-06
5 *1892:B1 *98:33 2.01142e-05
6 *1892:A *1892:B1 2.75346e-06
*RES
1 *1891:ZN *1892:B1 19.6786 
*END

*D_NET *68 0.000227121
*CONN
*I *1895:A I *D AOI21_X1
*I *1893:ZN O *D NOR2_X1
*CAP
1 *1895:A 1.75364e-05
2 *1893:ZN 1.75364e-05
3 *1895:A *1891:B2 1.72405e-05
4 *1895:A *98:74 9.33813e-05
5 *1895:A *1261:8 8.14262e-05
*RES
1 *1893:ZN *1895:A 25 
*END

*D_NET *69 0.000227955
*CONN
*I *1895:B1 I *D AOI21_X1
*I *1894:ZN O *D AOI22_X1
*CAP
1 *1895:B1 0.000113556
2 *1894:ZN 0.000113556
3 *1895:B1 *1421:31 0
4 *1895:B2 *1895:B1 8.43215e-07
5 *60:51 *1895:B1 0
*RES
1 *1894:ZN *1895:B1 21.0357 
*END

*D_NET *70 0.000120326
*CONN
*I *1898:A I *D AOI21_X1
*I *1896:ZN O *D NOR2_X1
*CAP
1 *1898:A 5.36499e-05
2 *1896:ZN 5.36499e-05
3 *1898:A *1898:B1 7.19036e-06
4 *1898:B2 *1898:A 5.83614e-06
*RES
1 *1896:ZN *1898:A 16.0714 
*END

*D_NET *71 0.000647187
*CONN
*I *1898:B1 I *D AOI21_X1
*I *1897:ZN O *D AOI22_X1
*CAP
1 *1898:B1 0.000149786
2 *1897:ZN 0.000149786
3 *1898:B1 *1894:B1 4.91538e-05
4 *1898:B1 *1894:B2 0.000210333
5 *1898:B1 *1897:A1 7.72537e-06
6 *1898:B1 *1897:B1 2.75346e-06
7 *1898:B1 *1251:15 1.18589e-06
8 *1898:B1 *1262:8 6.84295e-05
9 *1898:A *1898:B1 7.19036e-06
10 *1898:B2 *1898:B1 8.43215e-07
*RES
1 *1897:ZN *1898:B1 42.7857 
*END

*D_NET *72 0.000369687
*CONN
*I *1901:A I *D AOI21_X1
*I *1899:ZN O *D NOR2_X1
*CAP
1 *1901:A 7.34116e-05
2 *1899:ZN 7.34116e-05
3 *1901:A *1899:A2 0.000196007
4 *1901:A *1901:B1 7.72792e-06
5 *1901:A *2229:CK 2.52965e-06
6 *1901:A *97:19 3.2623e-06
7 *1901:A *97:63 8.22449e-06
8 *1901:A *1258:57 5.11191e-06
*RES
1 *1899:ZN *1901:A 31.8571 
*END

*D_NET *73 0.00019335
*CONN
*I *1901:B1 I *D AOI21_X1
*I *1900:ZN O *D AOI22_X1
*CAP
1 *1901:B1 6.61572e-05
2 *1900:ZN 6.61572e-05
3 *1901:B1 *1888:A1 1.28122e-06
4 *1901:B1 *2229:CK 6.91187e-06
5 *1901:B1 *1254:11 1.76665e-06
6 *1901:A *1901:B1 7.72792e-06
7 *2229:D *1901:B1 4.33476e-05
*RES
1 *1900:ZN *1901:B1 18.2143 
*END

*D_NET *74 0.000147301
*CONN
*I *1904:A I *D AOI21_X1
*I *1902:ZN O *D NOR2_X1
*CAP
1 *1904:A 5.30672e-05
2 *1902:ZN 5.30672e-05
3 *1904:A *2230:CK 0
4 *1904:A *204:76 2.16072e-07
5 *1904:A *204:93 3.14626e-05
6 *1904:A *1258:92 2.75346e-06
7 *1904:A *1420:102 0
8 *2230:D *1904:A 6.73424e-06
*RES
1 *1902:ZN *1904:A 16.3571 
*END

*D_NET *75 0.000109036
*CONN
*I *1904:B1 I *D AOI21_X1
*I *1903:ZN O *D AOI22_X1
*CAP
1 *1904:B1 4.47654e-05
2 *1903:ZN 4.47654e-05
3 *1904:B1 *204:28 1.46241e-05
4 *1904:B1 *204:93 4.88118e-06
5 *1904:B1 *763:16 0
*RES
1 *1903:ZN *1904:B1 25 
*END

*D_NET *76 0.000221139
*CONN
*I *1907:A I *D AOI21_X1
*I *1905:ZN O *D NOR2_X1
*CAP
1 *1907:A 9.59653e-05
2 *1905:ZN 9.59653e-05
3 *1907:A *1903:B1 0
4 *1907:A *1903:B2 0
5 *1907:A *1905:A1 2.41544e-05
6 *1907:A *1907:B1 2.75346e-06
7 *1907:A *204:43 2.30024e-06
*RES
1 *1905:ZN *1907:A 19.7143 
*END

*D_NET *77 0.000486736
*CONN
*I *1907:B1 I *D AOI21_X1
*I *1906:ZN O *D AOI22_X1
*CAP
1 *1907:B1 0.000183816
2 *1906:ZN 0.000183816
3 *1907:B1 *1906:B2 9.56198e-06
4 *1907:B1 *204:50 6.54773e-05
5 *1907:B1 *1255:13 0
6 *1886:A *1907:B1 2.80752e-05
7 *1907:A *1907:B1 2.75346e-06
8 *2231:D *1907:B1 1.32348e-05
*RES
1 *1906:ZN *1907:B1 32.3929 
*END

*D_NET *78 0.00049217
*CONN
*I *1909:B I *D XNOR2_X1
*I *1908:ZN O *D XNOR2_X1
*CAP
1 *1909:B 0.000219258
2 *1908:ZN 0.000219258
3 *1909:B *1869:A 0
4 *1909:B *1908:B 1.12162e-05
5 *1909:B *1910:S 4.24381e-05
6 *1909:B *786:10 0
*RES
1 *1908:ZN *1909:B 42.0357 
*END

*D_NET *79 0.00145234
*CONN
*I *1910:B I *D MUX2_X1
*I *2112:A2 I *D NOR2_X1
*I *1909:ZN O *D XNOR2_X1
*CAP
1 *1910:B 7.92422e-05
2 *2112:A2 0
3 *1909:ZN 0
4 *79:16 0.000417006
5 *79:4 0.000496248
6 *1910:B *1909:A 2.54672e-06
7 *1910:B *1910:S 0.000210105
8 *1910:B *1919:C1 0
9 *1910:B *98:84 1.68643e-06
10 *79:16 *1847:A 2.74148e-05
11 *79:16 *1847:B1 3.09143e-06
12 *79:16 *1847:B2 5.43035e-06
13 *79:16 *1875:B2 3.7786e-05
14 *79:16 *1877:A 7.72792e-06
15 *79:16 *1877:C2 0
16 *79:16 *1909:A 4.33964e-05
17 *79:16 *1910:S 8.475e-05
18 *79:16 *1914:B1 8.26038e-06
19 *79:16 *530:184 0
20 *79:16 *530:186 0
21 *79:16 *751:97 4.04712e-06
22 *1874:A *79:16 1.03979e-05
23 *1875:B1 *79:16 1.15127e-05
24 *1877:B *79:16 1.68643e-06
*RES
1 *1909:ZN *79:4 5 
2 *79:4 *79:16 48.8929 
3 *79:16 *2112:A2 5 
4 *79:4 *1910:B 27.1786 
*END

*D_NET *80 0.000224982
*CONN
*I *1911:B2 I *D AOI221_X1
*I *1910:Z O *D MUX2_X1
*CAP
1 *1911:B2 9.27096e-05
2 *1910:Z 9.27096e-05
3 *1911:B2 *1911:C1 0
4 *1911:B2 *1919:C1 9.9032e-06
5 *1911:B2 *95:177 0
6 *1911:B2 *98:84 2.96598e-05
*RES
1 *1910:Z *1911:B2 20.3571 
*END

*D_NET *81 0.000358626
*CONN
*I *1913:A I *D AOI21_X1
*I *1911:ZN O *D AOI221_X1
*CAP
1 *1913:A 0.000156676
2 *1911:ZN 0.000156676
3 *1913:A *1912:A 2.23415e-06
4 *1913:A *1913:B1 2.37137e-05
5 *1913:A *1913:B2 8.58678e-06
6 *1913:A *98:74 1.07393e-05
*RES
1 *1911:ZN *1913:A 37.0357 
*END

*D_NET *82 0.000121915
*CONN
*I *1913:B2 I *D AOI21_X1
*I *1912:ZN O *D INV_X1
*CAP
1 *1913:B2 5.37804e-05
2 *1912:ZN 5.37804e-05
3 *1913:B2 *1912:A 5.76745e-06
4 *1913:B2 *2235:CK 0
5 *1913:B2 *1421:35 0
6 *1913:A *1913:B2 8.58678e-06
*RES
1 *1912:ZN *1913:B2 25.6786 
*END

*D_NET *83 0.000197877
*CONN
*I *1918:A I *D AOI21_X1
*I *1914:ZN O *D OAI21_X1
*CAP
1 *1918:A 7.24172e-05
2 *1914:ZN 7.24172e-05
3 *1918:A *1918:B1 1.5853e-05
4 *1918:A *751:8 7.4751e-06
5 *1918:A *751:10 1.09107e-05
6 *1918:A *751:14 5.56936e-06
7 *1918:A *762:39 1.32348e-05
*RES
1 *1914:ZN *1918:A 28.2857 
*END

*D_NET *84 0.000157364
*CONN
*I *1916:A I *D XNOR2_X1
*I *1915:ZN O *D NAND2_X1
*CAP
1 *1916:A 4.37055e-05
2 *1915:ZN 4.37055e-05
3 *1916:A *1916:B 5.10087e-06
4 *1916:A *1917:A 3.02351e-05
5 *1916:A *780:8 4.62991e-06
6 *49:12 *1916:A 2.99872e-05
*RES
1 *1915:ZN *1916:A 25.6786 
*END

*D_NET *85 0.000840113
*CONN
*I *1917:A I *D INV_X1
*I *2108:A2 I *D NOR2_X1
*I *1916:ZN O *D XNOR2_X1
*CAP
1 *1917:A 9.30742e-05
2 *2108:A2 0.000249292
3 *1916:ZN 1.41387e-05
4 *85:6 0.000356505
5 *1917:A *1916:B 6.32202e-06
6 *1917:A *1918:B1 4.12911e-06
7 *2108:A2 *1870:A 2.00152e-05
8 *2108:A2 *1878:A 0
9 *2108:A2 *2108:A1 1.21774e-06
10 *2108:A2 *2109:A 0
11 *2108:A2 *1231:8 5.01029e-05
12 *85:6 *1870:A 4.9678e-06
13 *1879:B2 *2108:A2 0
14 *1916:A *1917:A 3.02351e-05
15 *49:12 *85:6 9.62051e-07
16 *61:24 *2108:A2 9.15133e-06
17 *61:24 *85:6 0
*RES
1 *1916:ZN *85:6 6.75 
2 *85:6 *2108:A2 31.6072 
3 *85:6 *1917:A 26.1071 
*END

*D_NET *86 0.000188489
*CONN
*I *1918:B1 I *D AOI21_X1
*I *1917:ZN O *D INV_X1
*CAP
1 *1918:B1 7.88348e-05
2 *1917:ZN 7.88348e-05
3 *1918:B1 *1918:B2 1.21774e-06
4 *1918:B1 *751:8 0
5 *1918:B1 *751:42 0
6 *1918:B1 *762:39 9.62001e-06
7 *1917:A *1918:B1 4.12911e-06
8 *1918:A *1918:B1 1.5853e-05
*RES
1 *1917:ZN *1918:B1 28.75 
*END

*D_NET *87 0.000295503
*CONN
*I *1919:B I *D AOI211_X1
*I *1918:ZN O *D AOI21_X1
*CAP
1 *1919:B 0.000130816
2 *1918:ZN 0.000130816
3 *1919:B *1869:A 0
4 *1919:B *1919:C2 2.16072e-07
5 *1919:B *1921:A 4.87096e-06
6 *1919:B *98:84 0
7 *1919:B *762:39 2.60294e-05
8 *1919:B *762:48 2.75346e-06
*RES
1 *1918:ZN *1919:B 24.1786 
*END

*D_NET *88 0.000263
*CONN
*I *1921:A I *D AOI21_X1
*I *1919:ZN O *D AOI211_X1
*CAP
1 *1921:A 0.000103974
2 *1919:ZN 0.000103974
3 *1921:A *1921:B1 1.26998e-05
4 *1921:A *762:39 1.32323e-05
5 *1921:A *762:48 2.42487e-05
6 *1919:B *1921:A 4.87096e-06
*RES
1 *1919:ZN *1921:A 22.25 
*END

*D_NET *89 0.000261854
*CONN
*I *1921:B2 I *D AOI21_X1
*I *1920:ZN O *D INV_X1
*CAP
1 *1921:B2 0.000116389
2 *1920:ZN 0.000116389
3 *1921:B2 *1767:B2 0
4 *1921:B2 *1920:A 0
5 *1921:B2 *1921:B1 1.14339e-05
6 *2235:D *1921:B2 1.76415e-05
*RES
1 *1920:ZN *1921:B2 33.1429 
*END

*D_NET *90 0.000477314
*CONN
*I *1924:A I *D OAI21_X1
*I *1922:ZN O *D AOI22_X1
*CAP
1 *1924:A 0.000129585
2 *1922:ZN 0.000129585
3 *1924:A *1614:A 1.70233e-05
4 *1924:A *1924:B1 1.49183e-05
5 *1924:A *287:44 0.000159392
6 *1924:A *530:169 2.68094e-05
7 *1924:A *1421:14 0
*RES
1 *1922:ZN *1924:A 37.6429 
*END

*D_NET *91 0.000148258
*CONN
*I *1924:B1 I *D OAI21_X1
*I *1923:ZN O *D NAND2_X1
*CAP
1 *1924:B1 5.99247e-05
2 *1923:ZN 5.99247e-05
3 *1924:B1 *1922:A2 0
4 *1924:B1 *1923:A2 5.52692e-06
5 *1924:B1 *1925:C1 6.56185e-06
6 *1924:B1 *1421:14 1.40196e-06
7 *1924:A *1924:B1 1.49183e-05
*RES
1 *1923:ZN *1924:B1 18.1429 
*END

*D_NET *92 0.000354455
*CONN
*I *1925:C1 I *D AOI221_X1
*I *1924:ZN O *D OAI21_X1
*CAP
1 *1925:C1 0.000146209
2 *1924:ZN 0.000146209
3 *1925:C1 *1594:B2 2.86077e-05
4 *1925:C1 *1841:B2 1.19839e-05
5 *1925:C1 *1923:A2 9.92472e-06
6 *1925:C1 *1925:B2 2.56243e-06
7 *1925:C1 *511:167 2.39679e-06
8 *1924:B1 *1925:C1 6.56185e-06
*RES
1 *1924:ZN *1925:C1 25.6071 
*END

*D_NET *93 0.000197961
*CONN
*I *1927:A I *D AOI21_X1
*I *1925:ZN O *D AOI221_X1
*CAP
1 *1927:A 4.76211e-05
2 *1925:ZN 4.76211e-05
3 *1927:A *1841:C2 5.11191e-06
4 *1927:A *1925:B1 9.52105e-05
5 *1927:A *1926:A 0
6 *1927:A *1927:B1 2.39679e-06
7 *61:256 *1927:A 0
*RES
1 *1925:ZN *1927:A 26.9286 
*END

*D_NET *94 4.28951e-05
*CONN
*I *1927:B2 I *D AOI21_X1
*I *1926:ZN O *D INV_X1
*CAP
1 *1927:B2 2.14476e-05
2 *1926:ZN 2.14476e-05
*RES
1 *1926:ZN *1927:B2 12.2857 
*END

*D_NET *95 0.0179249
*CONN
*I *2111:A2 I *D NAND2_X1
*I *2097:A2 I *D NAND2_X1
*I *2133:A2 I *D NAND2_X1
*I *1929:A2 I *D NAND2_X1
*I *2092:A2 I *D NAND2_X1
*I *2103:A2 I *D NAND2_X1
*I *1844:B1 I *D OAI21_X1
*I *2107:A2 I *D NAND2_X1
*I *1877:C2 I *D AOI211_X1
*I *1911:C1 I *D AOI221_X1
*I *1919:C2 I *D AOI211_X1
*I *1615:B I *D XOR2_X1
*I *1612:A1 I *D NOR2_X1
*I *2086:A2 I *D NAND2_X1
*I *2081:A2 I *D NAND2_X1
*I *2075:A2 I *D NAND2_X1
*I *2052:A2 I *D NAND2_X1
*I *2041:A2 I *D NAND2_X1
*I *2047:A2 I *D NAND2_X1
*I *2059:A2 I *D NAND2_X1
*I *2070:A2 I *D NAND2_X1
*I *2064:A2 I *D NAND2_X1
*I *2752:Z O *D BUF_X4
*CAP
1 *2111:A2 0
2 *2097:A2 2.98461e-05
3 *2133:A2 0
4 *1929:A2 0.000138596
5 *2092:A2 2.85408e-05
6 *2103:A2 0
7 *1844:B1 0
8 *2107:A2 0.00033871
9 *1877:C2 5.42393e-05
10 *1911:C1 3.83876e-05
11 *1919:C2 9.02095e-05
12 *1615:B 5.92312e-05
13 *1612:A1 0
14 *2086:A2 0.000202206
15 *2081:A2 0
16 *2075:A2 0
17 *2052:A2 0
18 *2041:A2 0
19 *2047:A2 0.000158103
20 *2059:A2 0.000151446
21 *2070:A2 0.000245231
22 *2064:A2 0
23 *2752:Z 2.36243e-05
24 *95:282 0.000241644
25 *95:280 0.000251885
26 *95:267 0.000288989
27 *95:251 0.000562742
28 *95:240 0.000490092
29 *95:230 0.000443241
30 *95:199 0.00045956
31 *95:177 0.000267439
32 *95:162 0.000377974
33 *95:151 0.000340763
34 *95:137 0.000227473
35 *95:135 0.000145032
36 *95:131 0.000691373
37 *95:83 0.000341664
38 *95:81 0.00049169
39 *95:73 0.000314761
40 *95:71 0.000246849
41 *95:38 0.000330666
42 *95:34 0.000475476
43 *95:28 0.000533678
44 *95:22 0.000408779
45 *95:16 0.000632052
46 *95:14 0.000780724
47 *95:10 0.000733892
48 *1615:B *1882:A2 0
49 *1615:B *1910:A 6.15717e-05
50 *1877:C2 *530:184 1.18572e-05
51 *1911:C1 *1911:A 2.83434e-06
52 *1911:C1 *1913:B1 0
53 *1911:C1 *98:84 2.87703e-06
54 *1919:C2 *1919:C1 4.34589e-05
55 *1919:C2 *98:84 6.57169e-05
56 *1919:C2 *762:48 3.83453e-06
57 *1919:C2 *762:50 5.56276e-06
58 *1929:A2 *1929:A1 0.000170803
59 *1929:A2 *530:221 0.000112551
60 *2047:A2 *2045:B2 7.19036e-06
61 *2047:A2 *2046:B2 0
62 *2047:A2 *2047:A1 7.16188e-07
63 *2047:A2 *2050:A 2.21644e-05
64 *2047:A2 *503:8 1.86998e-06
65 *2047:A2 *524:210 1.95732e-05
66 *2047:A2 *524:216 2.42329e-05
67 *2047:A2 *530:122 6.11168e-05
68 *2047:A2 *1419:66 6.92191e-05
69 *2059:A2 *1519:B2 0
70 *2059:A2 *1522:B 0
71 *2059:A2 *1525:A1 1.22474e-05
72 *2059:A2 *2062:A 0.000282972
73 *2059:A2 *524:41 0
74 *2070:A2 *2064:A1 8.43215e-07
75 *2070:A2 *2070:A1 1.99453e-05
76 *2070:A2 *2073:A 5.20238e-07
77 *2070:A2 *2073:B1 4.42134e-05
78 *2070:A2 *2074:B2 4.05194e-05
79 *2070:A2 *182:12 0
80 *2070:A2 *530:66 8.94584e-06
81 *2070:A2 *1248:10 0
82 *2086:A2 *1989:A 0
83 *2086:A2 *2086:A1 0.000288299
84 *2086:A2 *2087:A1 6.50827e-06
85 *2086:A2 *2087:A2 6.84295e-05
86 *2086:A2 *2088:B 1.11357e-05
87 *2086:A2 *2089:A2 0.000184594
88 *2086:A2 *2090:B2 8.2076e-06
89 *2086:A2 *171:14 1.86133e-05
90 *2086:A2 *173:12 1.62366e-05
91 *2092:A2 *2092:A1 8.53017e-06
92 *2092:A2 *1419:23 7.72537e-06
93 *2097:A2 *494:12 2.55596e-05
94 *2097:A2 *494:18 3.02372e-05
95 *2107:A2 *1878:A 0
96 *2107:A2 *2109:A 0
97 *2107:A2 *2110:A 7.16188e-07
98 *2107:A2 *2110:B1 0
99 *2107:A2 *2242:D 0
100 *2107:A2 *762:10 0
101 *2107:A2 *762:25 0
102 *2107:A2 *1231:21 0
103 *2107:A2 *1421:69 7.5258e-05
104 *95:10 *1843:B2 0
105 *95:10 *530:6 1.78043e-05
106 *95:10 *1270:68 3.48838e-06
107 *95:14 *1596:A 4.25617e-05
108 *95:14 *1597:A2 0
109 *95:14 *1843:B2 0
110 *95:14 *1988:A 0
111 *95:14 *1988:S 0
112 *95:14 *516:37 0
113 *95:14 *530:6 0.000155393
114 *95:14 *1270:68 4.12459e-06
115 *95:16 *1988:S 0
116 *95:16 *2246:D 1.43979e-05
117 *95:16 *530:6 2.67652e-05
118 *95:16 *530:29 4.32144e-07
119 *95:16 *530:31 4.51129e-05
120 *95:22 *2075:A1 8.43215e-07
121 *95:22 *2078:A1 0
122 *95:22 *2079:B1 1.86809e-06
123 *95:22 *2080:A 1.27403e-05
124 *95:22 *2080:B2 1.45851e-05
125 *95:22 *2085:A 4.66123e-05
126 *95:22 *2085:B2 0
127 *95:22 *524:112 0
128 *95:22 *530:31 3.58094e-06
129 *95:22 *530:46 3.0658e-05
130 *95:22 *530:60 4.15369e-06
131 *95:22 *1418:90 0
132 *95:28 *2075:A1 3.09143e-06
133 *95:28 *139:8 8.58678e-06
134 *95:28 *530:60 7.97674e-06
135 *95:28 *766:20 4.18985e-05
136 *95:34 *1529:A2 1.74934e-05
137 *95:34 *530:60 0.00010704
138 *95:34 *530:64 0.000273237
139 *95:38 *2062:A 1.72426e-05
140 *95:38 *530:66 0.000234989
141 *95:71 *1542:B2 9.05224e-06
142 *95:71 *1972:A 9.05224e-06
143 *95:71 *1972:B 0.000353274
144 *95:71 *139:8 8.42325e-05
145 *95:71 *460:10 0
146 *95:71 *460:12 0
147 *95:71 *766:18 2.49497e-05
148 *95:71 *766:20 0.000326993
149 *95:71 *1247:21 2.64562e-05
150 *95:73 *2252:CK 9.57492e-07
151 *95:81 *1933:A 7.83382e-06
152 *95:81 *1933:B 0
153 *95:81 *1934:A 1.92814e-05
154 *95:81 *2052:A1 7.45042e-05
155 *95:81 *2058:A 2.39679e-06
156 *95:81 *2252:D 0
157 *95:81 *2252:CK 4.79202e-06
158 *95:81 *99:134 0
159 *95:81 *499:12 0
160 *95:83 *2041:A1 8.43215e-07
161 *95:83 *524:216 0
162 *95:83 *1419:66 0
163 *95:131 *1604:A1 6.78878e-05
164 *95:131 *1843:A 3.13582e-06
165 *95:131 *2113:B2 1.38656e-05
166 *95:131 *511:195 2.96955e-05
167 *95:131 *1270:68 5.10087e-06
168 *95:135 *1593:A 0
169 *95:135 *1593:B1 8.18024e-05
170 *95:135 *1844:A 8.57252e-05
171 *95:135 *287:65 0
172 *95:135 *511:195 0
173 *95:135 *530:186 0
174 *95:151 *1612:A2 1.43531e-05
175 *95:151 *1844:B2 1.77822e-05
176 *95:151 *1877:C1 0
177 *95:151 *1882:A2 8.98274e-07
178 *95:151 *2172:A 0
179 *95:151 *751:71 8.167e-05
180 *95:151 *762:6 7.19234e-06
181 *95:151 *1421:69 7.78682e-06
182 *95:162 *1833:B 2.83289e-05
183 *95:162 *1835:B 0
184 *95:162 *1882:A2 2.51354e-05
185 *95:162 *1914:B2 4.79658e-06
186 *95:162 *535:10 0
187 *95:162 *751:71 2.88151e-05
188 *95:177 *1882:A2 0
189 *95:177 *1909:A 0
190 *95:177 *1910:A 1.9777e-05
191 *95:177 *1910:S 0.000121198
192 *95:199 *762:10 0
193 *95:199 *1421:69 6.41814e-05
194 *95:230 *2113:B1 4.76429e-07
195 *95:230 *2113:B2 5.12024e-06
196 *95:230 *2114:A 9.99932e-06
197 *95:230 *2114:B1 2.87248e-06
198 *95:230 *2114:B2 1.75354e-05
199 *95:230 *2241:D 4.80268e-06
200 *95:230 *2241:CK 0
201 *95:240 *1993:B 9.35655e-06
202 *95:240 *2103:A1 3.58094e-06
203 *95:240 *2106:A 8.58686e-06
204 *95:240 *2106:B2 5.36473e-05
205 *95:240 *2114:A 7.16188e-07
206 *95:240 *2241:CK 0
207 *95:240 *2243:D 1.52083e-06
208 *95:240 *530:196 1.05893e-05
209 *95:251 *2003:A 4.95679e-05
210 *95:251 *2100:A2 0
211 *95:251 *2103:A1 1.21774e-06
212 *95:251 *170:8 1.06847e-05
213 *95:251 *530:206 0.000231324
214 *95:267 *1995:A 0
215 *95:267 *1995:B 5.9664e-05
216 *95:267 *2092:A1 0.000170919
217 *95:267 *2100:A1 5.56388e-06
218 *95:267 *162:8 2.17833e-06
219 *95:267 *524:266 2.01721e-05
220 *95:267 *766:105 3.01758e-05
221 *95:267 *766:146 1.07364e-05
222 *95:267 *766:163 1.50328e-05
223 *95:280 *2100:A1 8.40361e-06
224 *95:280 *2100:A2 0
225 *95:280 *2102:A 0
226 *95:280 *2102:B1 0
227 *95:280 *2102:B2 1.83411e-06
228 *95:280 *530:206 1.05415e-05
229 *95:280 *530:215 5.65825e-05
230 *95:282 *530:215 0.000154741
231 *95:282 *530:221 5.80092e-05
232 *1877:B *1877:C2 1.83053e-06
233 *1877:B *2107:A2 0
234 *1911:B2 *1911:C1 0
235 *1911:B2 *95:177 0
236 *1919:B *1919:C2 2.16072e-07
237 *2003:B2 *95:251 0
238 *2124:A *95:16 9.57492e-07
239 *2238:D *95:14 0
240 *2238:D *95:131 1.06148e-05
241 *2246:RN *95:16 1.91954e-06
242 *50:14 *2107:A2 9.74263e-06
243 *60:10 *95:162 0
244 *61:38 *95:240 0
245 *61:42 *95:267 0
246 *61:79 *95:34 2.93996e-05
247 *61:92 *95:34 6.79219e-05
248 *61:147 *2097:A2 1.66988e-05
249 *61:153 *1929:A2 0.000108189
250 *61:153 *95:282 0.000207599
251 *61:167 *95:83 1.15127e-05
252 *61:173 *95:83 9.9032e-06
253 *61:179 *95:83 0
254 *61:256 *95:131 9.93898e-05
255 *61:256 *95:230 4.82613e-05
256 *79:16 *1877:C2 0
*RES
1 *2752:Z *95:10 12.6786 
2 *95:10 *95:14 41.75 
3 *95:14 *95:16 30.75 
4 *95:16 *95:22 39.6429 
5 *95:22 *95:28 11.5357 
6 *95:28 *95:34 46.25 
7 *95:34 *95:38 18.1429 
8 *95:38 *2064:A2 5 
9 *95:38 *2070:A2 44.3214 
10 *95:34 *2059:A2 31.9643 
11 *95:28 *95:71 49.3572 
12 *95:71 *95:73 0.75 
13 *95:73 *95:81 46.4286 
14 *95:81 *95:83 18.25 
15 *95:83 *2047:A2 36.4286 
16 *95:83 *2041:A2 5 
17 *95:73 *2052:A2 5 
18 *95:22 *2075:A2 5 
19 *95:16 *2081:A2 5 
20 *95:14 *2086:A2 47.8929 
21 *95:10 *95:131 51.1429 
22 *95:131 *95:135 22.75 
23 *95:135 *95:137 5 
24 *95:137 *95:151 24.7143 
25 *95:151 *1612:A1 5 
26 *95:151 *95:162 25.1786 
27 *95:162 *1615:B 18.3929 
28 *95:162 *95:177 21.8214 
29 *95:177 *1919:C2 28.3571 
30 *95:177 *1911:C1 8.75 
31 *95:137 *95:199 9.07143 
32 *95:199 *1877:C2 15.75 
33 *95:199 *2107:A2 47.5714 
34 *95:135 *1844:B1 5 
35 *95:131 *95:230 22.9286 
36 *95:230 *95:240 43.5714 
37 *95:240 *2103:A2 5 
38 *95:240 *95:251 30.1786 
39 *95:251 *95:267 49.6072 
40 *95:267 *2092:A2 7.75 
41 *95:251 *95:280 19.0357 
42 *95:280 *95:282 20.25 
43 *95:282 *1929:A2 36.9286 
44 *95:282 *2133:A2 5 
45 *95:280 *2097:A2 20 
46 *95:230 *2111:A2 5 
*END

*D_NET *96 0.000180307
*CONN
*I *2040:A I *D OAI21_X1
*I *1929:ZN O *D NAND2_X1
*CAP
1 *2040:A 8.8955e-05
2 *1929:ZN 8.8955e-05
3 *2040:A *2040:B1 2.39679e-06
4 *2040:A *2256:CK 0
*RES
1 *1929:ZN *2040:A 18.75 
*END

*D_NET *97 0.00313096
*CONN
*I *1894:A2 I *D AOI22_X1
*I *1897:A2 I *D AOI22_X1
*I *1891:A2 I *D AOI22_X1
*I *1900:A2 I *D AOI22_X1
*I *1885:A2 I *D AOI22_X1
*I *1903:A2 I *D AOI22_X1
*I *1906:A2 I *D AOI22_X1
*I *1888:A2 I *D AOI22_X1
*I *2751:Z O *D BUF_X2
*CAP
1 *1894:A2 5.54887e-05
2 *1897:A2 7.46336e-06
3 *1891:A2 7.23265e-05
4 *1900:A2 6.52946e-06
5 *1885:A2 8.30652e-06
6 *1903:A2 9.37363e-05
7 *1906:A2 2.90432e-05
8 *1888:A2 0
9 *2751:Z 0.000159278
10 *97:74 7.2492e-05
11 *97:63 0.000208844
12 *97:23 0.000144742
13 *97:21 0.000106278
14 *97:19 0.000145048
15 *97:17 0.000368286
16 *97:8 0.000338076
17 *1885:A2 *763:31 4.32144e-07
18 *1885:A2 *1257:9 2.39679e-06
19 *1891:A2 *1891:A1 1.87637e-06
20 *1891:A2 *98:48 9.12321e-05
21 *1894:A2 *1894:B1 0.0001212
22 *1894:A2 *1894:B2 3.11414e-05
23 *1894:A2 *1258:57 0
24 *1897:A2 *1897:A1 2.39679e-06
25 *1897:A2 *98:48 2.16072e-07
26 *1900:A2 *1254:11 1.21774e-06
27 *1903:A2 *763:31 0.000203517
28 *1903:A2 *1255:13 0.000203517
29 *1906:A2 *1906:B1 5.48932e-05
30 *1906:A2 *204:50 0
31 *1906:A2 *1255:13 6.48216e-07
32 *1906:A2 *1256:5 2.39679e-06
33 *97:8 *1887:A1 0
34 *97:8 *1887:A2 0
35 *97:8 *2155:A 4.78746e-06
36 *97:8 *2226:CK 0
37 *97:8 *1420:83 0
38 *97:17 *1888:A1 0.000243757
39 *97:17 *2152:A 0
40 *97:17 *2155:A 0
41 *97:17 *1258:59 0
42 *97:21 *1900:B1 0.000172389
43 *97:23 *1900:B1 3.81944e-05
44 *97:23 *1906:B1 1.66988e-05
45 *97:63 *1894:B1 1.66988e-05
46 *97:63 *1897:B2 2.00032e-05
47 *97:63 *1899:A1 0
48 *97:63 *1258:57 0
49 *97:74 *1894:B1 2.96955e-05
50 *97:74 *1258:57 0
51 *1886:B1 *1906:A2 0
52 *1889:A *97:8 0
53 *1889:B1 *97:8 6.07323e-06
54 *1893:A2 *1891:A2 0
55 *1901:A *97:19 3.2623e-06
56 *1901:A *97:63 8.22449e-06
57 *2229:D *1900:A2 3.09411e-06
58 *2229:D *97:19 3.50591e-05
59 *2229:RN *97:17 0
*RES
1 *2751:Z *97:8 20.8571 
2 *97:8 *1888:A2 5 
3 *97:8 *97:17 28.25 
4 *97:17 *97:19 6.35715 
5 *97:19 *97:21 11.1071 
6 *97:21 *97:23 2.96429 
7 *97:23 *1906:A2 13.7143 
8 *97:23 *1903:A2 29.25 
9 *97:21 *1885:A2 10.75 
10 *97:19 *1900:A2 10.75 
11 *97:17 *97:63 14.5 
12 *97:63 *1891:A2 19.25 
13 *97:63 *97:74 1.60714 
14 *97:74 *1897:A2 10.75 
15 *97:74 *1894:A2 19.3929 
*END

*D_NET *98 0.00372811
*CONN
*I *1911:B1 I *D AOI221_X1
*I *1914:A I *D OAI21_X1
*I *1847:A I *D OAI21_X1
*I *1897:B1 I *D AOI22_X1
*I *1894:B1 I *D AOI22_X1
*I *1891:B1 I *D AOI22_X1
*I *1888:B1 I *D AOI22_X1
*I *2750:Z O *D BUF_X2
*CAP
1 *1911:B1 0
2 *1914:A 0
3 *1847:A 9.77168e-05
4 *1897:B1 4.69711e-06
5 *1894:B1 4.44786e-05
6 *1891:B1 0
7 *1888:B1 8.14917e-06
8 *2750:Z 9.21209e-05
9 *98:84 0.000321612
10 *98:74 0.000515636
11 *98:48 9.80344e-05
12 *98:44 0.000357597
13 *98:33 0.000252315
14 *98:10 0.000335587
15 *1847:A *1847:B1 5.54348e-05
16 *1847:A *1875:A 1.73483e-05
17 *1847:A *1875:B2 2.52965e-06
18 *1847:A *1914:B1 2.75346e-06
19 *1847:A *751:42 7.82019e-05
20 *1847:A *751:97 1.04632e-05
21 *1847:A *762:39 0
22 *1888:B1 *1888:A1 8.43215e-07
23 *1894:B1 *1894:A1 2.52965e-06
24 *1894:B1 *1894:B2 1.72405e-05
25 *1894:B1 *1897:A1 0
26 *1897:B1 *1897:A1 1.87637e-06
27 *1897:B1 *1251:15 1.87369e-06
28 *98:10 *1888:B2 1.72405e-05
29 *98:10 *2225:CK 8.72098e-07
30 *98:10 *1258:86 0
31 *98:10 *1258:92 0
32 *98:10 *1420:87 8.89283e-06
33 *98:10 *1420:102 7.72537e-06
34 *98:33 *1888:B2 0.000133283
35 *98:33 *1891:B2 2.0334e-05
36 *98:33 *1892:B2 2.43548e-06
37 *98:33 *2155:A 0
38 *98:33 *2226:CK 8.22158e-05
39 *98:33 *204:16 4.87096e-06
40 *98:33 *1258:57 0
41 *98:33 *1258:59 0
42 *98:33 *1258:86 0
43 *98:44 *1891:B2 2.51997e-05
44 *98:44 *1258:57 0
45 *98:48 *1891:A1 9.17646e-05
46 *98:48 *1897:A1 8.43215e-07
47 *98:48 *1251:15 2.25089e-06
48 *98:74 *1891:B2 4.82544e-05
49 *98:74 *1911:A 2.75346e-06
50 *98:74 *1258:57 0
51 *98:74 *1261:8 0.000106569
52 *98:74 *1421:31 3.96892e-05
53 *98:84 *1869:A 5.54315e-05
54 *98:84 *1909:A 0
55 *98:84 *1910:S 9.67365e-05
56 *98:84 *1911:A 4.71367e-05
57 *98:84 *1914:B1 4.97191e-06
58 *98:84 *1919:C1 2.94345e-06
59 *98:84 *751:42 7.72537e-06
60 *98:84 *762:39 0
61 *98:84 *762:48 0
62 *98:84 *762:50 1.1429e-05
63 *1889:B1 *1888:B1 2.39679e-06
64 *1891:A2 *98:48 9.12321e-05
65 *1892:B1 *98:33 2.01142e-05
66 *1894:A2 *1894:B1 0.0001212
67 *1895:A *98:74 9.33813e-05
68 *1897:A2 *98:48 2.16072e-07
69 *1898:B1 *1894:B1 4.91538e-05
70 *1898:B1 *1897:B1 2.75346e-06
71 *1910:B *98:84 1.68643e-06
72 *1911:B2 *98:84 2.96598e-05
73 *1911:C1 *98:84 2.87703e-06
74 *1913:A *98:74 1.07393e-05
75 *1919:B *98:84 0
76 *1919:C2 *98:84 6.57169e-05
77 *2226:D *98:33 2.25683e-05
78 *79:16 *1847:A 2.74148e-05
79 *97:63 *1894:B1 1.66988e-05
80 *97:74 *1894:B1 2.96955e-05
*RES
1 *2750:Z *98:10 20.5 
2 *98:10 *1888:B1 10.75 
3 *98:10 *98:33 39.5 
4 *98:33 *1891:B1 10 
5 *98:33 *98:44 2.35714 
6 *98:44 *98:48 14.25 
7 *98:48 *1894:B1 24.1429 
8 *98:48 *1897:B1 5.75 
9 *98:44 *98:74 45.1072 
10 *98:74 *98:84 41.6072 
11 *98:84 *1847:A 29.5714 
12 *98:84 *1914:A 5 
13 *98:74 *1911:B1 5 
*END

*D_NET *99 0.010258
*CONN
*I *1933:S I *D MUX2_X1
*I *2138:S I *D MUX2_X1
*I *2029:S I *D MUX2_X1
*I *2140:S I *D MUX2_X1
*I *2031:S I *D MUX2_X1
*I *1935:S I *D MUX2_X1
*I *1947:S I *D MUX2_X1
*I *1955:S I *D MUX2_X1
*I *1953:S I *D MUX2_X1
*I *1958:S I *D MUX2_X1
*I *1938:S I *D MUX2_X1
*I *1945:S I *D MUX2_X1
*I *1960:S I *D MUX2_X1
*I *1940:S I *D MUX2_X1
*I *2749:Z O *D BUF_X4
*CAP
1 *1933:S 0
2 *2138:S 6.13983e-05
3 *2029:S 0.00019011
4 *2140:S 0
5 *2031:S 0
6 *1935:S 0
7 *1947:S 0
8 *1955:S 0
9 *1953:S 9.17379e-06
10 *1958:S 0.000140122
11 *1938:S 0.000122455
12 *1945:S 1.11831e-05
13 *1960:S 0
14 *1940:S 0.000212641
15 *2749:Z 0.000203396
16 *99:164 0.000347695
17 *99:158 0.000270539
18 *99:149 0.000241088
19 *99:147 0.000298832
20 *99:134 0.000346402
21 *99:98 0.000368886
22 *99:88 0.000315499
23 *99:60 0.000149782
24 *99:56 0.00036656
25 *99:45 0.000360509
26 *99:43 0.000660468
27 *99:37 0.000121132
28 *99:16 0.000727369
29 *99:14 0.00073682
30 *99:12 0.000264066
31 *1938:S *1938:A 1.84554e-05
32 *1938:S *1945:B 0.000298729
33 *1938:S *1955:B 3.61194e-05
34 *1940:S *1947:B 0
35 *1940:S *2253:D 0
36 *1940:S *114:8 0
37 *1940:S *191:18 0.000249023
38 *1940:S *511:16 9.24246e-06
39 *1940:S *511:18 6.51628e-05
40 *1945:S *1945:A 2.39679e-06
41 *1945:S *1945:B 9.62051e-07
42 *1958:S *1953:A 5.22522e-05
43 *1958:S *1954:A 0.000121163
44 *1958:S *1958:A 6.31115e-06
45 *1958:S *1962:A 0
46 *2029:S *1744:A 0
47 *2029:S *2029:B 0
48 *2029:S *2030:A 1.24752e-05
49 *2029:S *2030:B 0
50 *2029:S *2140:A 0.000127045
51 *2029:S *2146:B2 1.52083e-06
52 *2029:S *197:8 0
53 *2029:S *511:130 1.45851e-05
54 *2138:S *2137:A 0.000147729
55 *2138:S *1240:12 4.06418e-05
56 *99:12 *1541:B 6.39696e-06
57 *99:12 *1848:B 1.30304e-05
58 *99:12 *1933:A 7.72537e-06
59 *99:12 *1933:B 3.51992e-06
60 *99:12 *2039:A 4.86762e-05
61 *99:12 *2052:A1 5.2192e-06
62 *99:12 *524:222 3.5628e-06
63 *99:14 *1933:A 2.75346e-06
64 *99:14 *1934:B 0
65 *99:14 *2052:A1 2.16072e-07
66 *99:16 *1516:A 4.69845e-05
67 *99:16 *2050:A 0
68 *99:16 *2051:B2 0
69 *99:16 *436:6 0
70 *99:16 *530:122 0
71 *99:16 *1236:8 0
72 *99:37 *1513:A 1.27666e-06
73 *99:37 *1947:A 7.72537e-06
74 *99:37 *1947:B 0.000118267
75 *99:37 *524:31 0
76 *99:43 *1513:A 9.62051e-07
77 *99:43 *1947:A 2.75346e-06
78 *99:43 *524:31 0
79 *99:45 *1955:A 5.62265e-05
80 *99:45 *1960:B 0.000354064
81 *99:45 *433:14 0
82 *99:45 *524:31 0
83 *99:45 *524:37 0
84 *99:45 *1235:8 0
85 *99:56 *1513:A 8.62576e-05
86 *99:56 *1949:A 0
87 *99:56 *1950:A1 5.56098e-05
88 *99:56 *1952:A 0
89 *99:56 *1952:B 0
90 *99:56 *114:8 0
91 *99:88 *1938:A 1.0164e-05
92 *99:88 *1946:A 3.69953e-05
93 *99:88 *1955:A 1.87392e-05
94 *99:88 *1955:B 4.11109e-05
95 *99:88 *2022:A 0
96 *99:88 *2022:B1 0
97 *99:88 *122:8 6.30454e-06
98 *99:98 *1945:A 0
99 *99:98 *1946:A 7.16188e-07
100 *99:98 *1954:A 7.28304e-05
101 *99:98 *1954:B 0.000121739
102 *99:98 *1956:A 6.83382e-05
103 *99:98 *1956:B 1.72063e-05
104 *99:98 *2022:A 0
105 *99:98 *2022:B2 1.49313e-05
106 *99:98 *122:8 0.000141225
107 *99:134 *1492:A1 0.000120408
108 *99:134 *1934:A 0.0001212
109 *99:134 *1936:A 7.90727e-05
110 *99:134 *1936:B 1.65323e-05
111 *99:134 *2027:A1 0.000236572
112 *99:147 *1492:A1 0.000198626
113 *99:147 *1492:A2 3.15734e-05
114 *99:147 *1505:B2 1.90574e-06
115 *99:147 *1935:A 2.39679e-06
116 *99:147 *511:108 0
117 *99:149 *1490:A1 0
118 *99:149 *2031:A 0.00012099
119 *99:149 *2135:A2 0
120 *99:149 *410:12 8.14641e-05
121 *99:149 *1239:14 3.35796e-05
122 *99:158 *2031:A 8.26038e-06
123 *99:158 *2135:A2 0
124 *99:164 *2141:A 2.14856e-06
125 *99:164 *2141:B 1.53335e-05
126 *99:164 *197:8 0
127 *99:164 *277:10 0
128 *99:164 *1240:12 3.02351e-05
129 *2118:A *99:134 0
130 *2119:A *99:45 5.6231e-05
131 *95:81 *99:134 0
*RES
1 *2749:Z *99:12 36.7143 
2 *99:12 *99:14 5.75 
3 *99:14 *99:16 44.25 
4 *99:16 *1940:S 44.0714 
5 *99:16 *99:37 19.8214 
6 *99:37 *99:43 9.39286 
7 *99:43 *99:45 49.1072 
8 *99:45 *1960:S 10 
9 *99:43 *99:56 33.25 
10 *99:56 *99:60 1.67857 
11 *99:60 *1945:S 6.25 
12 *99:60 *1938:S 34.8214 
13 *99:56 *99:88 24.7143 
14 *99:88 *99:98 38.7143 
15 *99:98 *1958:S 30 
16 *99:98 *1953:S 10.75 
17 *99:88 *1955:S 5 
18 *99:37 *1947:S 5 
19 *99:14 *99:134 46.2143 
20 *99:134 *1935:S 5 
21 *99:134 *99:147 26.4286 
22 *99:147 *99:149 24.25 
23 *99:149 *2031:S 5 
24 *99:149 *99:158 10.25 
25 *99:158 *99:164 21.8571 
26 *99:164 *2140:S 5 
27 *99:164 *2029:S 39.75 
28 *99:158 *2138:S 20.4286 
29 *99:12 *1933:S 5 
*END

*D_NET *100 9.03604e-05
*CONN
*I *1934:B I *D XOR2_X1
*I *1933:Z O *D MUX2_X1
*CAP
1 *1934:B 4.51802e-05
2 *1933:Z 4.51802e-05
3 *1934:B *524:216 0
4 *99:14 *1934:B 0
*RES
1 *1933:Z *1934:B 14.3571 
*END

*D_NET *101 0.000431613
*CONN
*I *2026:A1 I *D NAND2_X1
*I *1936:A I *D XOR2_X1
*I *1934:Z O *D XOR2_X1
*CAP
1 *2026:A1 4.72709e-05
2 *1936:A 0.000148276
3 *1934:Z 0.000101005
4 *1936:A *1936:B 2.08416e-06
5 *2026:A1 *2026:A2 5.06354e-05
6 *2026:A1 *2028:A2 0
7 *2118:A *1936:A 0
8 *61:167 *1936:A 3.27005e-06
9 *61:167 *2026:A1 0
10 *99:134 *1936:A 7.90727e-05
*RES
1 *1934:Z *1936:A 32.8571 
2 *1936:A *2026:A1 16.1786 
*END

*D_NET *102 0.000631972
*CONN
*I *2026:A2 I *D NAND2_X1
*I *1936:B I *D XOR2_X1
*I *1935:Z O *D MUX2_X1
*CAP
1 *2026:A2 3.02493e-05
2 *1936:B 0.000217922
3 *1935:Z 0.000187672
4 *1936:B *1505:B2 4.50258e-05
5 *1936:B *1935:A 0
6 *1936:B *1935:B 3.10783e-05
7 *1936:B *1937:B 3.83453e-06
8 *1936:B *2027:A1 3.73586e-05
9 *1936:A *1936:B 2.08416e-06
10 *2026:A1 *2026:A2 5.06354e-05
11 *61:167 *1936:B 0
12 *61:167 *2026:A2 9.57948e-06
13 *99:134 *1936:B 1.65323e-05
*RES
1 *1935:Z *1936:B 43.6072 
2 *1936:B *2026:A2 14.75 
*END

*D_NET *103 0.000173042
*CONN
*I *2027:A2 I *D NAND2_X1
*I *1937:B I *D XNOR2_X1
*I *1936:Z O *D XOR2_X1
*CAP
1 *2027:A2 0
2 *1937:B 5.19736e-05
3 *1936:Z 2.14476e-05
4 *103:6 7.34211e-05
5 *1937:B *1937:A 1.92742e-05
6 *1937:B *2027:A1 3.09143e-06
7 *1937:B *192:17 0
8 *103:6 *104:8 0
9 *1936:B *1937:B 3.83453e-06
10 *61:167 *1937:B 0
*RES
1 *1936:Z *103:6 7.28572 
2 *103:6 *1937:B 10.75 
3 *103:6 *2027:A2 5 
*END

*D_NET *104 0.000764479
*CONN
*I *2042:A3 I *D AND3_X1
*I *2025:A I *D AOI21_X4
*I *1937:ZN O *D XNOR2_X1
*CAP
1 *2042:A3 4.86602e-05
2 *2025:A 0
3 *1937:ZN 0.000203682
4 *104:8 0.000252342
5 *2042:A3 *2025:B1 3.23209e-05
6 *2042:A3 *2025:B2 3.55053e-06
7 *2042:A3 *2043:A2 3.19642e-05
8 *2042:A3 *110:14 2.39679e-06
9 *104:8 *1937:A 0.000147817
10 *104:8 *2043:A2 1.3638e-05
11 *104:8 *2044:A2 2.81073e-05
12 *104:8 *192:17 0
13 *61:179 *2042:A3 0
14 *61:179 *104:8 0
15 *103:6 *104:8 0
*RES
1 *1937:ZN *104:8 29.6786 
2 *104:8 *2025:A 5 
3 *104:8 *2042:A3 11.3571 
*END

*D_NET *105 0.000250154
*CONN
*I *1939:B I *D XOR2_X1
*I *1938:Z O *D MUX2_X1
*CAP
1 *1939:B 4.86567e-05
2 *1938:Z 4.86567e-05
3 *1939:B *1938:B 5.11191e-06
4 *1939:B *1939:A 0.000147729
*RES
1 *1938:Z *1939:B 28.3929 
*END

*D_NET *106 0.00037363
*CONN
*I *1942:A I *D XOR2_X1
*I *1941:A1 I *D AND2_X1
*I *1939:Z O *D XOR2_X1
*CAP
1 *1942:A 3.73506e-05
2 *1941:A1 0
3 *1939:Z 8.87827e-05
4 *106:14 0.000126133
5 *1942:A *1941:A2 2.32024e-05
6 *1942:A *1943:B1 1.02178e-05
7 *106:14 *1941:A2 8.43215e-07
8 *106:14 *1943:A 4.32298e-05
9 *106:14 *1943:B1 6.38328e-07
10 *106:14 *1943:B2 4.32319e-05
*RES
1 *1939:Z *106:14 25.8571 
2 *106:14 *1941:A1 5 
3 *106:14 *1942:A 10.25 
*END

*D_NET *107 0.000468383
*CONN
*I *1942:B I *D XOR2_X1
*I *1941:A2 I *D AND2_X1
*I *1940:Z O *D MUX2_X1
*CAP
1 *1942:B 0
2 *1941:A2 5.87402e-05
3 *1940:Z 0.00013517
4 *107:8 0.00019391
5 *1941:A2 *1943:B1 0
6 *107:8 *1441:A 4.93896e-05
7 *107:8 *1943:B1 0
8 *107:8 *110:14 0
9 *107:8 *1059:14 7.12794e-06
10 *1942:A *1941:A2 2.32024e-05
11 *106:14 *1941:A2 8.43215e-07
*RES
1 *1940:Z *107:8 19.8571 
2 *107:8 *1941:A2 11.6786 
3 *107:8 *1942:B 5 
*END

*D_NET *108 0.000115937
*CONN
*I *1943:A I *D AOI21_X1
*I *1941:ZN O *D AND2_X1
*CAP
1 *1943:A 3.63536e-05
2 *1941:ZN 3.63536e-05
3 *106:14 *1943:A 4.32298e-05
*RES
1 *1941:ZN *1943:A 24.3214 
*END

*D_NET *109 0.000316266
*CONN
*I *1943:B1 I *D AOI21_X1
*I *1944:B I *D XOR2_X1
*I *1942:Z O *D XOR2_X1
*CAP
1 *1943:B1 4.67593e-05
2 *1944:B 2.80706e-05
3 *1942:Z 3.40843e-05
4 *109:8 0.000108914
5 *1943:B1 *110:14 6.11142e-05
6 *1944:B *110:14 1.32323e-05
7 *1944:B *111:12 1.32348e-05
8 *109:8 *1059:14 0
9 *1941:A2 *1943:B1 0
10 *1942:A *1943:B1 1.02178e-05
11 *106:14 *1943:B1 6.38328e-07
12 *107:8 *1943:B1 0
*RES
1 *1942:Z *109:8 13.6429 
2 *109:8 *1944:B 12.8571 
3 *109:8 *1943:B1 16.75 
*END

*D_NET *110 0.00111616
*CONN
*I *2025:B1 I *D AOI21_X4
*I *2042:A2 I *D AND3_X1
*I *1943:ZN O *D AOI21_X1
*CAP
1 *2025:B1 5.00214e-05
2 *2042:A2 0
3 *1943:ZN 0.000312119
4 *110:14 0.00036214
5 *2025:B1 *2025:B2 1.25215e-05
6 *2025:B1 *2043:A2 1.80284e-05
7 *2025:B1 *2047:A1 3.96416e-05
8 *2025:B1 *524:10 4.01853e-05
9 *110:14 *1940:A 0
10 *110:14 *1940:B 7.16188e-07
11 *110:14 *1944:A 2.55787e-06
12 *110:14 *191:18 0.000163095
13 *110:14 *1059:14 6.06867e-06
14 *110:14 *1237:25 0
15 *1943:B1 *110:14 6.11142e-05
16 *1944:B *110:14 1.32323e-05
17 *2042:A3 *2025:B1 3.23209e-05
18 *2042:A3 *110:14 2.39679e-06
19 *61:179 *2025:B1 0
20 *107:8 *110:14 0
*RES
1 *1943:ZN *110:14 42.7857 
2 *110:14 *2042:A2 5 
3 *110:14 *2025:B1 22.2857 
*END

*D_NET *111 0.000497325
*CONN
*I *2024:A I *D OAI21_X4
*I *2048:A3 I *D OR3_X1
*I *1944:Z O *D XOR2_X1
*CAP
1 *2024:A 4.87674e-05
2 *2048:A3 0
3 *1944:Z 0.000147222
4 *111:12 0.000195989
5 *2024:A *2048:A1 4.32144e-07
6 *2024:A *2048:A2 3.83732e-05
7 *2024:A *2049:B2 3.19771e-05
8 *111:12 *1944:A 2.1329e-05
9 *1944:B *111:12 1.32348e-05
*RES
1 *1944:Z *111:12 32.1072 
2 *111:12 *2048:A3 5 
3 *111:12 *2024:A 11.3571 
*END

*D_NET *112 0.000104709
*CONN
*I *1946:B I *D XOR2_X1
*I *1945:Z O *D MUX2_X1
*CAP
1 *1946:B 2.14154e-05
2 *1945:Z 2.14154e-05
3 *1946:B *1938:A 5.11191e-06
4 *1946:B *1946:A 5.67661e-05
*RES
1 *1945:Z *1946:B 23.6429 
*END

*D_NET *113 0.000456058
*CONN
*I *1948:A1 I *D NAND2_X1
*I *1949:A I *D XOR2_X1
*I *1946:Z O *D XOR2_X1
*CAP
1 *1948:A1 0
2 *1949:A 7.18e-05
3 *1946:Z 0.00013071
4 *113:14 0.00020251
5 *1949:A *1948:A2 4.81412e-05
6 *1949:A *1951:A2 0
7 *113:14 *1943:B2 0
8 *113:14 *1948:A2 2.16072e-07
9 *113:14 *1955:B 2.68039e-06
10 *99:56 *1949:A 0
*RES
1 *1946:Z *113:14 27.2857 
2 *113:14 *1949:A 22.7143 
3 *113:14 *1948:A1 5 
*END

*D_NET *114 0.000457221
*CONN
*I *1949:B I *D XOR2_X1
*I *1948:A2 I *D NAND2_X1
*I *1947:Z O *D MUX2_X1
*CAP
1 *1949:B 0
2 *1948:A2 5.63207e-05
3 *1947:Z 0.00014589
4 *114:8 0.000202211
5 *1948:A2 *1950:A1 0
6 *1948:A2 *1951:A1 4.4417e-06
7 *114:8 *1513:A 0
8 *114:8 *1950:A1 0
9 *1940:S *114:8 0
10 *1949:A *1948:A2 4.81412e-05
11 *99:56 *114:8 0
12 *113:14 *1948:A2 2.16072e-07
*RES
1 *1947:Z *114:8 19.3571 
2 *114:8 *1948:A2 11.6786 
3 *114:8 *1949:B 5 
*END

*D_NET *115 0.000163623
*CONN
*I *1951:A1 I *D NAND2_X1
*I *1948:ZN O *D NAND2_X1
*CAP
1 *1951:A1 5.35991e-05
2 *1948:ZN 5.35991e-05
3 *1951:A1 *1950:A1 0
4 *1951:A1 *1951:A2 1.19839e-05
5 *1951:A1 *190:10 3.99995e-05
6 *1948:A2 *1951:A1 4.4417e-06
*RES
1 *1948:ZN *1951:A1 25.5357 
*END

*D_NET *116 0.000404733
*CONN
*I *1950:A2 I *D NAND2_X1
*I *1952:B I *D XNOR2_X1
*I *1949:Z O *D XOR2_X1
*CAP
1 *1950:A2 0
2 *1952:B 3.63923e-05
3 *1949:Z 5.25661e-05
4 *116:8 8.89584e-05
5 *1952:B *119:12 3.49085e-06
6 *1952:B *190:10 8.27554e-05
7 *116:8 *1950:A1 0
8 *116:8 *190:10 0.00014057
9 *99:56 *1952:B 0
*RES
1 *1949:Z *116:8 17.7143 
2 *116:8 *1952:B 15.5714 
3 *116:8 *1950:A2 10 
*END

*D_NET *117 0.000307937
*CONN
*I *1951:A2 I *D NAND2_X1
*I *1950:ZN O *D NAND2_X1
*CAP
1 *1951:A2 6.9281e-05
2 *1950:ZN 6.9281e-05
3 *1951:A2 *190:10 0.000157391
4 *1949:A *1951:A2 0
5 *1951:A1 *1951:A2 1.19839e-05
*RES
1 *1950:ZN *1951:A2 29.6429 
*END

*D_NET *118 0.000561715
*CONN
*I *2024:B1 I *D OAI21_X4
*I *2048:A2 I *D OR3_X1
*I *1951:ZN O *D NAND2_X1
*CAP
1 *2024:B1 2.04858e-05
2 *2048:A2 2.46535e-05
3 *1951:ZN 3.71084e-05
4 *118:8 8.22477e-05
5 *2024:B1 *1944:A 3.71527e-05
6 *2024:B1 *2024:B2 4.11048e-05
7 *2024:B1 *2049:B2 1.25215e-05
8 *2048:A2 *2048:A1 1.51442e-05
9 *118:8 *1944:A 9.44188e-05
10 *118:8 *2024:B2 2.51997e-05
11 *118:8 *190:10 0.000133304
12 *2024:A *2048:A2 3.83732e-05
*RES
1 *1951:ZN *118:8 18.3929 
2 *118:8 *2048:A2 13.75 
3 *118:8 *2024:B1 13.5357 
*END

*D_NET *119 0.000456091
*CONN
*I *2055:A I *D XOR2_X1
*I *2023:A I *D AOI21_X4
*I *1952:ZN O *D XNOR2_X1
*CAP
1 *2055:A 0
2 *2023:A 7.32852e-05
3 *1952:ZN 0.000108975
4 *119:12 0.00018226
5 *2023:A *1955:A 0
6 *2023:A *2023:B1 5.56098e-05
7 *2023:A *2055:B 1.39839e-06
8 *2023:A *511:18 0
9 *119:12 *1955:A 5.69557e-06
10 *119:12 *2023:B2 8.33759e-07
11 *119:12 *2055:B 3.09143e-06
12 *119:12 *190:10 2.14514e-05
13 *1952:B *119:12 3.49085e-06
*RES
1 *1952:ZN *119:12 28.6786 
2 *119:12 *2023:A 23.8929 
3 *119:12 *2055:A 5 
*END

*D_NET *120 0.000271523
*CONN
*I *1954:B I *D XOR2_X1
*I *1953:Z O *D MUX2_X1
*CAP
1 *1954:B 1.79634e-05
2 *1953:Z 1.79634e-05
3 *1954:B *1954:A 0.000108745
4 *1954:B *2022:B2 5.11191e-06
5 *99:98 *1954:B 0.000121739
*RES
1 *1953:Z *1954:B 26.3571 
*END

*D_NET *121 0.000434946
*CONN
*I *2021:A1 I *D AND2_X1
*I *1956:A I *D XOR2_X1
*I *1954:Z O *D XOR2_X1
*CAP
1 *2021:A1 5.42691e-05
2 *1956:A 8.61551e-05
3 *1954:Z 3.1886e-05
4 *1956:A *2022:B2 0.000173718
5 *2021:A1 *2021:A2 2.05797e-05
6 *2021:A1 *189:8 0
7 *99:98 *1956:A 6.83382e-05
*RES
1 *1954:Z *1956:A 29.0714 
2 *1956:A *2021:A1 16.1786 
*END

*D_NET *122 0.00048411
*CONN
*I *2021:A2 I *D AND2_X1
*I *1956:B I *D XOR2_X1
*I *1955:Z O *D MUX2_X1
*CAP
1 *2021:A2 4.01772e-05
2 *1956:B 4.43081e-06
3 *1955:Z 6.99953e-05
4 *122:8 0.000114603
5 *1956:B *2022:B2 6.30856e-06
6 *2021:A2 *2022:A 2.97287e-06
7 *122:8 *1945:A 0
8 *122:8 *1946:A 4.37715e-05
9 *122:8 *2022:B2 1.6535e-05
10 *2021:A1 *2021:A2 2.05797e-05
11 *99:88 *122:8 6.30454e-06
12 *99:98 *1956:B 1.72063e-05
13 *99:98 *122:8 0.000141225
*RES
1 *1955:Z *122:8 21.7857 
2 *122:8 *1956:B 10.9286 
3 *122:8 *2021:A2 14.75 
*END

*D_NET *123 0.000371543
*CONN
*I *2022:B1 I *D AOI21_X1
*I *1957:B I *D XOR2_X1
*I *1956:Z O *D XOR2_X1
*CAP
1 *2022:B1 8.48023e-05
2 *1957:B 3.88633e-05
3 *1956:Z 3.56789e-05
4 *123:8 0.000159344
5 *2022:B1 *1955:A 0
6 *2022:B1 *2022:A 2.75346e-06
7 *2022:B1 *189:8 5.01004e-05
8 *123:8 *1957:A 0
9 *123:8 *189:8 0
10 *99:88 *2022:B1 0
*RES
1 *1956:Z *123:8 13.25 
2 *123:8 *1957:B 14.3214 
3 *123:8 *2022:B1 19.75 
*END

*D_NET *124 0.000612861
*CONN
*I *2060:A1 I *D OR3_X1
*I *2020:A I *D OAI21_X4
*I *1957:Z O *D XOR2_X1
*CAP
1 *2060:A1 4.71809e-05
2 *2020:A 0
3 *1957:Z 0.000170565
4 *124:12 0.000217745
5 *2060:A1 *2060:A2 1.32348e-05
6 *2060:A1 *2060:A3 1.99211e-05
7 *124:12 *1953:B 4.52612e-06
8 *124:12 *1957:A 0.000134158
9 *124:12 *2022:B2 0
10 *124:12 *2060:A3 5.52959e-06
*RES
1 *1957:Z *124:12 35.1429 
2 *124:12 *2020:A 5 
3 *124:12 *2060:A1 10.75 
*END

*D_NET *125 9.62133e-05
*CONN
*I *1959:B I *D XOR2_X1
*I *1958:Z O *D MUX2_X1
*CAP
1 *1959:B 4.48257e-05
2 *1958:Z 4.48257e-05
3 *1959:B *1962:A 6.56185e-06
*RES
1 *1958:Z *1959:B 15 
*END

*D_NET *126 0.000460149
*CONN
*I *2017:A1 I *D NAND2_X1
*I *1961:A I *D XOR2_X1
*I *1959:Z O *D XOR2_X1
*CAP
1 *2017:A1 3.07984e-05
2 *1961:A 4.84253e-05
3 *1959:Z 0.000122247
4 *126:10 0.000201471
5 *1961:A *2017:A2 2.09633e-05
6 *1961:A *2018:A1 0
7 *2017:A1 *2018:A1 1.46266e-05
8 *126:10 *1959:A 9.71417e-06
9 *126:10 *2018:A1 1.19024e-05
*RES
1 *1959:Z *126:10 22.7143 
2 *126:10 *1961:A 15.25 
3 *126:10 *2017:A1 13.6429 
*END

*D_NET *127 0.000461841
*CONN
*I *1961:B I *D XOR2_X1
*I *2017:A2 I *D NAND2_X1
*I *1960:Z O *D MUX2_X1
*CAP
1 *1961:B 0
2 *2017:A2 6.18849e-05
3 *1960:Z 0.000158554
4 *127:8 0.000220439
5 *2017:A2 *2019:A1 0
6 *127:8 *1960:A 0
7 *1961:A *2017:A2 2.09633e-05
*RES
1 *1960:Z *127:8 20.7143 
2 *127:8 *2017:A2 11.6786 
3 *127:8 *1961:B 5 
*END

*D_NET *128 0.000287846
*CONN
*I *2018:A2 I *D NAND2_X1
*I *1962:B I *D XNOR2_X1
*I *1961:Z O *D XOR2_X1
*CAP
1 *2018:A2 5.29981e-06
2 *1962:B 6.61363e-05
3 *1961:Z 3.84814e-05
4 *128:8 0.000109918
5 *1962:B *1962:A 8.26038e-06
6 *1962:B *129:8 8.727e-07
7 *2018:A2 *2018:A1 5.52959e-06
8 *128:8 *2018:A1 1.7644e-05
9 *128:8 *2019:A2 3.5704e-05
*RES
1 *1961:Z *128:8 15.6786 
2 *128:8 *1962:B 17.25 
3 *128:8 *2018:A2 11.25 
*END

*D_NET *129 0.000439959
*CONN
*I *2066:B I *D XOR2_X1
*I *2016:A I *D AOI21_X4
*I *1962:ZN O *D XNOR2_X1
*CAP
1 *2066:B 7.21677e-05
2 *2016:A 8.32405e-05
3 *1962:ZN 4.71336e-05
4 *129:8 0.000202542
5 *2016:A *2016:B1 2.16072e-07
6 *2066:B *2016:B1 0
7 *2066:B *2016:B2 1.83288e-05
8 *2066:B *2067:A2 1.04584e-06
9 *129:8 *183:8 1.44121e-05
10 *1962:B *129:8 8.727e-07
*RES
1 *1962:ZN *129:8 15.6786 
2 *129:8 *2016:A 18.75 
3 *129:8 *2066:B 19.1786 
*END

*D_NET *130 0.000132719
*CONN
*I *1964:B I *D XOR2_X1
*I *1963:Z O *D MUX2_X1
*CAP
1 *1964:B 2.72544e-05
2 *1963:Z 2.72544e-05
3 *1964:B *1963:B 2.22337e-05
4 *1964:B *1964:A 5.59765e-05
*RES
1 *1963:Z *1964:B 25 
*END

*D_NET *131 0.000442919
*CONN
*I *1967:A I *D XOR2_X1
*I *1966:A1 I *D AND2_X1
*I *1964:Z O *D XOR2_X1
*CAP
1 *1967:A 5.79069e-05
2 *1966:A1 7.93844e-06
3 *1964:Z 0.000127324
4 *131:8 0.000193169
5 *1966:A1 *1963:S 0
6 *1966:A1 *1966:A2 2.75346e-06
7 *1967:A *1966:A2 5.06354e-05
8 *1967:A *1968:B1 0
9 *1967:A *1968:B2 3.19164e-06
10 *1967:A *1969:A 0
11 *1967:A *1969:B 0
12 *1967:A *132:6 0
13 *131:8 *1963:B 0
14 *131:8 *1963:S 0
15 *131:8 *1968:B2 0
*RES
1 *1964:Z *131:8 17.5357 
2 *131:8 *1966:A1 6.25 
3 *131:8 *1967:A 12.8571 
*END

*D_NET *132 0.000228686
*CONN
*I *1967:B I *D XOR2_X1
*I *1966:A2 I *D AND2_X1
*I *1965:Z O *D MUX2_X1
*CAP
1 *1967:B 0
2 *1966:A2 3.43649e-05
3 *1965:Z 5.32838e-05
4 *132:6 8.76486e-05
5 *1966:A1 *1966:A2 2.75346e-06
6 *1967:A *1966:A2 5.06354e-05
7 *1967:A *132:6 0
*RES
1 *1965:Z *132:6 10.6786 
2 *132:6 *1966:A2 9.75 
3 *132:6 *1967:B 5 
*END

*D_NET *133 8.91512e-05
*CONN
*I *1968:A I *D AOI21_X1
*I *1966:ZN O *D AND2_X1
*CAP
1 *1968:A 3.77494e-05
2 *1966:ZN 3.77494e-05
3 *1968:A *1968:B2 9.52324e-06
4 *1968:A *135:10 4.12911e-06
*RES
1 *1966:ZN *1968:A 24.3214 
*END

*D_NET *134 0.000207103
*CONN
*I *1969:B I *D XOR2_X1
*I *1968:B1 I *D AOI21_X1
*I *1967:Z O *D XOR2_X1
*CAP
1 *1969:B 3.16619e-05
2 *1968:B1 4.32951e-05
3 *1967:Z 2.78148e-05
4 *134:6 0.000102772
5 *1968:B1 *1968:B2 8.43215e-07
6 *1969:B *1969:A 7.16188e-07
7 *1967:A *1968:B1 0
8 *1967:A *1969:B 0
*RES
1 *1967:Z *134:6 7.96429 
2 *134:6 *1968:B1 9.25 
3 *134:6 *1969:B 8.53572 
*END

*D_NET *135 0.000377547
*CONN
*I *2065:A2 I *D NAND2_X1
*I *2016:B1 I *D AOI21_X4
*I *1968:ZN O *D AOI21_X1
*CAP
1 *2065:A2 1.6998e-05
2 *2016:B1 8.40801e-05
3 *1968:ZN 8.49138e-05
4 *135:10 0.000185992
5 *2016:B1 *2016:B2 0
6 *2065:A2 *2016:B2 0
7 *2065:A2 *2066:A 0
8 *2065:A2 *182:12 1.21774e-06
9 *1968:A *135:10 4.12911e-06
10 *2016:A *2016:B1 2.16072e-07
11 *2066:B *2016:B1 0
*RES
1 *1968:ZN *135:10 24.75 
2 *135:10 *2016:B1 23.25 
3 *135:10 *2065:A2 6.75 
*END

*D_NET *136 0.00078416
*CONN
*I *2015:A I *D OAI21_X4
*I *2071:A3 I *D OR3_X1
*I *1969:Z O *D XOR2_X1
*CAP
1 *2015:A 5.99293e-05
2 *2071:A3 0
3 *1969:Z 0.000268797
4 *136:8 0.000328727
5 *2015:A *2071:A1 8.56032e-06
6 *2015:A *2071:A2 5.93359e-05
7 *2015:A *182:6 0
8 *2015:A *182:12 0
9 *2015:A *1248:10 0
10 *136:8 *1969:A 0
11 *136:8 *2068:A 4.45934e-05
12 *136:8 *2071:A2 2.75346e-06
13 *136:8 *2073:B1 1.68643e-06
14 *136:8 *182:12 0
15 *2121:A *2015:A 9.77674e-06
*RES
1 *1969:Z *136:8 32.2143 
2 *136:8 *2071:A3 5 
3 *136:8 *2015:A 22.6071 
*END

*D_NET *137 6.83641e-05
*CONN
*I *1971:B I *D XOR2_X1
*I *1970:Z O *D MUX2_X1
*CAP
1 *1971:B 3.4182e-05
2 *1970:Z 3.4182e-05
*RES
1 *1970:Z *1971:B 13.6429 
*END

*D_NET *138 0.000403595
*CONN
*I *1974:A I *D XOR2_X1
*I *1973:A1 I *D NAND2_X1
*I *1971:Z O *D XOR2_X1
*CAP
1 *1974:A 0
2 *1973:A1 3.66153e-05
3 *1971:Z 3.89045e-05
4 *138:10 7.55198e-05
5 *1973:A1 *1973:A2 5.01004e-05
6 *1973:A1 *1976:A1 1.04584e-06
7 *1973:A1 *1977:A 5.05177e-05
8 *138:10 *1970:B 0.000134192
9 *138:10 *1973:A2 1.66988e-05
*RES
1 *1971:Z *138:10 22.0357 
2 *138:10 *1973:A1 11.1786 
3 *138:10 *1974:A 5 
*END

*D_NET *139 0.00102484
*CONN
*I *1974:B I *D XOR2_X1
*I *1973:A2 I *D NAND2_X1
*I *1972:Z O *D MUX2_X1
*CAP
1 *1974:B 0
2 *1973:A2 6.26365e-05
3 *1972:Z 0
4 *139:8 0.000375675
5 *139:6 0.000313039
6 *1973:A2 *1970:B 1.40436e-05
7 *1973:A2 *1977:A 0
8 *139:8 *1970:B 2.03657e-05
9 *139:8 *1972:B 1.21072e-05
10 *139:8 *1977:A 0
11 *139:8 *766:20 6.73552e-05
12 *1973:A1 *1973:A2 5.01004e-05
13 *95:28 *139:8 8.58678e-06
14 *95:71 *139:8 8.42325e-05
15 *138:10 *1973:A2 1.66988e-05
*RES
1 *1972:Z *139:6 10 
2 *139:6 *139:8 41.6429 
3 *139:8 *1973:A2 17.7143 
4 *139:8 *1974:B 10 
*END

*D_NET *140 0.000114709
*CONN
*I *1976:A1 I *D NAND2_X1
*I *1973:ZN O *D NAND2_X1
*CAP
1 *1976:A1 3.82992e-05
2 *1973:ZN 3.82992e-05
3 *1976:A1 *1976:A2 3.53324e-05
4 *1976:A1 *1977:A 1.7326e-06
5 *1973:A1 *1976:A1 1.04584e-06
*RES
1 *1973:ZN *1976:A1 14.8571 
*END

*D_NET *141 0.000233775
*CONN
*I *1977:B I *D XNOR2_X1
*I *1975:A2 I *D NAND2_X1
*I *1974:Z O *D XOR2_X1
*CAP
1 *1977:B 4.25175e-05
2 *1975:A2 0
3 *1974:Z 2.01798e-05
4 *141:6 6.26973e-05
5 *1977:B *1977:A 5.17665e-05
6 *1977:B *181:6 1.14895e-05
7 *141:6 *1976:A2 6.71316e-06
8 *141:6 *1977:A 3.41146e-05
9 *141:6 *181:6 4.29713e-06
*RES
1 *1974:Z *141:6 8.25 
2 *141:6 *1975:A2 5 
3 *141:6 *1977:B 11.3571 
*END

*D_NET *142 0.000445203
*CONN
*I *1976:A2 I *D NAND2_X1
*I *1975:ZN O *D NAND2_X1
*CAP
1 *1976:A2 0.000117382
2 *1975:ZN 0.000117382
3 *1976:A2 *1977:A 1.93293e-05
4 *1976:A2 *181:6 0.000149063
5 *1976:A1 *1976:A2 3.53324e-05
6 *141:6 *1976:A2 6.71316e-06
*RES
1 *1975:ZN *1976:A2 27.7857 
*END

*D_NET *143 0.000375354
*CONN
*I *2015:B1 I *D OAI21_X4
*I *2071:A2 I *D OR3_X1
*I *1976:ZN O *D NAND2_X1
*CAP
1 *2015:B1 1.50803e-05
2 *2071:A2 4.99648e-05
3 *1976:ZN 7.87546e-05
4 *143:6 0.0001438
5 *2071:A2 *2071:A1 9.00659e-06
6 *143:6 *2071:A1 1.40196e-06
7 *143:6 *181:6 1.52561e-05
8 *2015:A *2071:A2 5.93359e-05
9 *136:8 *2071:A2 2.75346e-06
*RES
1 *1976:ZN *143:6 13.25 
2 *143:6 *2071:A2 11.6786 
3 *143:6 *2015:B1 6.60714 
*END

*D_NET *144 0.000388203
*CONN
*I *2014:A I *D AOI21_X4
*I *2077:A I *D XOR2_X1
*I *1977:ZN O *D XNOR2_X1
*CAP
1 *2014:A 7.72156e-05
2 *2077:A 0
3 *1977:ZN 4.78256e-05
4 *144:8 0.000125041
5 *2014:A *2014:B1 2.39679e-06
6 *2014:A *2014:B2 3.81944e-05
7 *2014:A *2077:B 2.07643e-05
8 *2014:A *180:10 4.37715e-05
9 *2014:A *181:6 1.60038e-06
10 *2014:A *511:56 1.26414e-05
11 *144:8 *2077:B 0
12 *144:8 *2078:A2 1.32732e-05
13 *144:8 *181:6 4.79658e-06
14 *144:8 *511:56 6.82202e-07
*RES
1 *1977:ZN *144:8 10.3571 
2 *144:8 *2077:A 5 
3 *144:8 *2014:A 25.75 
*END

*D_NET *145 0.000464343
*CONN
*I *1979:B I *D XOR2_X1
*I *1978:Z O *D MUX2_X1
*CAP
1 *1979:B 0.000202416
2 *1978:Z 0.000202416
3 *1979:B *1979:A 0
4 *1979:B *1982:B 1.67614e-05
5 *1979:B *2013:A 0
6 *1979:B *146:10 2.84961e-05
7 *1979:B *148:6 6.47615e-06
8 *1979:B *180:10 7.77781e-06
9 *1979:B *766:65 0
*RES
1 *1978:Z *1979:B 32.3929 
*END

*D_NET *146 0.000208435
*CONN
*I *1981:A I *D XOR2_X1
*I *2012:A1 I *D AND2_X1
*I *1979:Z O *D XOR2_X1
*CAP
1 *1981:A 0
2 *2012:A1 2.81455e-05
3 *1979:Z 4.79495e-05
4 *146:10 7.60951e-05
5 *2012:A1 *1981:B 2.16603e-05
6 *146:10 *1981:B 6.0887e-06
7 *146:10 *766:65 0
8 *1979:B *146:10 2.84961e-05
*RES
1 *1979:Z *146:10 11.5 
2 *146:10 *2012:A1 18.6429 
3 *146:10 *1981:A 5 
*END

*D_NET *147 0.00160829
*CONN
*I *2012:A2 I *D AND2_X1
*I *1981:B I *D XOR2_X1
*I *1980:Z O *D MUX2_X1
*CAP
1 *2012:A2 8.1982e-06
2 *1981:B 3.7463e-05
3 *1980:Z 0
4 *147:8 0.000379254
5 *147:6 0.000333593
6 *2012:A2 *2013:A 1.21774e-06
7 *147:8 *1980:B 3.07768e-05
8 *147:8 *2078:A2 0
9 *147:8 *2079:B2 0.000144238
10 *147:8 *524:104 0.000429909
11 *147:8 *524:106 0.000119077
12 *147:8 *524:112 5.56848e-05
13 *147:8 *1418:10 1.53357e-05
14 *147:8 *1418:16 2.57883e-05
15 *2012:A1 *1981:B 2.16603e-05
16 *146:10 *1981:B 6.0887e-06
*RES
1 *1980:Z *147:6 10 
2 *147:6 *147:8 52.5 
3 *147:8 *1981:B 14.8929 
4 *147:8 *2012:A2 11.25 
*END

*D_NET *148 0.000300978
*CONN
*I *1982:B I *D XOR2_X1
*I *2013:B1 I *D AOI21_X1
*I *1981:Z O *D XOR2_X1
*CAP
1 *1982:B 9.28471e-05
2 *2013:B1 0
3 *1981:Z 3.66533e-05
4 *148:6 0.0001295
5 *1982:B *2013:A 0
6 *1982:B *180:10 4.97191e-06
7 *148:6 *2013:A 0
8 *148:6 *180:10 1.37673e-05
9 *1979:B *1982:B 1.67614e-05
10 *1979:B *148:6 6.47615e-06
*RES
1 *1981:Z *148:6 9.25 
2 *148:6 *2013:B1 5 
3 *148:6 *1982:B 15.4286 
*END

*D_NET *149 0.000340677
*CONN
*I *2082:A1 I *D OR3_X1
*I *2011:A I *D OAI21_X4
*I *1982:Z O *D XOR2_X1
*CAP
1 *2082:A1 6.91499e-06
2 *2011:A 3.81334e-05
3 *1982:Z 7.39211e-05
4 *149:8 0.000118969
5 *2011:A *2082:A2 1.86444e-05
6 *2011:A *511:73 2.36213e-05
7 *2082:A1 *2084:B2 1.72426e-05
8 *149:8 *1978:B 0
9 *149:8 *2084:B2 4.32298e-05
*RES
1 *1982:Z *149:8 19.0714 
2 *149:8 *2011:A 14.75 
3 *149:8 *2082:A1 10.9286 
*END

*D_NET *150 6.83641e-05
*CONN
*I *1984:B I *D XOR2_X1
*I *1983:Z O *D MUX2_X1
*CAP
1 *1984:B 3.4182e-05
2 *1983:Z 3.4182e-05
*RES
1 *1983:Z *1984:B 13.6429 
*END

*D_NET *151 0.000442748
*CONN
*I *1986:A I *D XOR2_X1
*I *2008:A1 I *D NAND2_X1
*I *1984:Z O *D XOR2_X1
*CAP
1 *1986:A 3.45404e-05
2 *2008:A1 0
3 *1984:Z 8.95376e-05
4 *151:12 0.000124078
5 *1986:A *1987:A 4.78819e-05
6 *1986:A *174:10 0
7 *151:12 *1983:B 0.000121739
8 *151:12 *1987:A 2.49705e-05
9 *151:12 *174:10 0
*RES
1 *1984:Z *151:12 26.8571 
2 *151:12 *2008:A1 5 
3 *151:12 *1986:A 9.75 
*END

*D_NET *152 0.000999126
*CONN
*I *1986:B I *D XOR2_X1
*I *2008:A2 I *D NAND2_X1
*I *1985:Z O *D MUX2_X1
*CAP
1 *1986:B 0
2 *2008:A2 5.91057e-05
3 *1985:Z 0.000234895
4 *152:10 0.000294001
5 *2008:A2 *1987:A 5.56073e-05
6 *2008:A2 *511:73 1.08561e-05
7 *152:10 *1985:A 0
8 *152:10 *1985:B 0
9 *152:10 *1990:A 0
10 *152:10 *2009:A1 0.000274517
11 *152:10 *1245:8 0
12 *2124:A *152:10 6.38189e-05
13 *61:50 *152:10 6.32461e-06
*RES
1 *1985:Z *152:10 41.3214 
2 *152:10 *2008:A2 17.5357 
3 *152:10 *1986:B 10 
*END

*D_NET *153 0.000112974
*CONN
*I *2009:A2 I *D NAND2_X1
*I *1987:B I *D XNOR2_X1
*I *1986:Z O *D XOR2_X1
*CAP
1 *2009:A2 2.14476e-05
2 *1987:B 2.80294e-05
3 *1986:Z 4.9477e-05
4 *1987:B *1987:A 1.40196e-05
5 *1987:B *174:10 0
*RES
1 *1986:Z *1987:B 13.25 
2 *1986:Z *2009:A2 12.2857 
*END

*D_NET *154 0.000314097
*CONN
*I *2007:A I *D AOI21_X4
*I *2088:A I *D XOR2_X1
*I *1987:ZN O *D XNOR2_X1
*CAP
1 *2007:A 5.94319e-05
2 *2088:A 0
3 *1987:ZN 8.50454e-05
4 *154:6 0.000144477
5 *2007:A *2162:A2 0
6 *2007:A *174:10 8.30738e-06
7 *154:6 *2162:A2 0
8 *154:6 *174:10 1.68352e-05
9 *154:6 *511:73 0
*RES
1 *1987:ZN *154:6 13.75 
2 *154:6 *2088:A 5 
3 *154:6 *2007:A 11.1786 
*END

*D_NET *155 6.83641e-05
*CONN
*I *1989:B I *D XOR2_X1
*I *1988:Z O *D MUX2_X1
*CAP
1 *1989:B 3.4182e-05
2 *1988:Z 3.4182e-05
*RES
1 *1988:Z *1989:B 13.6429 
*END

*D_NET *156 0.000378325
*CONN
*I *1991:A I *D XOR2_X1
*I *2005:A1 I *D AND2_X1
*I *1989:Z O *D XOR2_X1
*CAP
1 *1991:A 2.68508e-05
2 *2005:A1 0
3 *1989:Z 1.92851e-05
4 *156:8 4.61359e-05
5 *1991:A *1602:A 6.48216e-07
6 *1991:A *1988:B 9.1913e-05
7 *1991:A *1992:A 6.18458e-05
8 *156:8 *1988:B 9.49605e-05
9 *156:8 *1992:A 3.66854e-05
*RES
1 *1989:Z *156:8 15 
2 *156:8 *2005:A1 10 
3 *156:8 *1991:A 15.75 
*END

*D_NET *157 0.000645326
*CONN
*I *1991:B I *D XOR2_X1
*I *2005:A2 I *D AND2_X1
*I *1990:Z O *D MUX2_X1
*CAP
1 *1991:B 1.19976e-05
2 *2005:A2 4.8291e-05
3 *1990:Z 0.000142058
4 *157:10 0.000202346
5 *1991:B *1988:B 2.25089e-06
6 *2005:A2 *1602:A 1.08036e-06
7 *2005:A2 *1988:B 0.000108259
8 *2005:A2 *1992:A 4.45767e-06
9 *2005:A2 *2006:B1 2.39679e-06
10 *2005:A2 *2006:B2 9.36271e-05
11 *2005:A2 *2237:CK 0
12 *2005:A2 *171:14 1.40462e-05
13 *157:10 *1990:B 1.39844e-06
14 *157:10 *2006:B1 1.31175e-05
15 *157:10 *2353:A 0
*RES
1 *1990:Z *157:10 19.6071 
2 *157:10 *2005:A2 24.0357 
3 *157:10 *1991:B 6.67857 
*END

*D_NET *158 0.000194257
*CONN
*I *1992:B I *D XOR2_X1
*I *2006:B1 I *D AOI21_X1
*I *1991:Z O *D XOR2_X1
*CAP
1 *1992:B 2.18147e-05
2 *2006:B1 3.19068e-05
3 *1991:Z 5.37215e-05
4 *1992:B *1992:A 5.67661e-05
5 *1992:B *171:12 3.01743e-06
6 *2006:B1 *2006:B2 1.15165e-05
7 *2005:A2 *2006:B1 2.39679e-06
8 *157:10 *2006:B1 1.31175e-05
*RES
1 *1991:Z *2006:B1 13.75 
2 *1991:Z *1992:B 23.6429 
*END

*D_NET *159 0.00046017
*CONN
*I *2093:A3 I *D OR3_X1
*I *2004:A I *D OAI21_X4
*I *1992:Z O *D XOR2_X1
*CAP
1 *2093:A3 4.62275e-05
2 *2004:A 0
3 *1992:Z 8.22337e-05
4 *159:8 0.000128461
5 *2093:A3 *2093:A1 0
6 *2093:A3 *2093:A2 6.62667e-05
7 *2093:A3 *2094:B2 4.95679e-05
8 *2093:A3 *2096:B1 2.3767e-06
9 *159:8 *2096:B1 3.01743e-06
10 *159:8 *171:12 8.20193e-05
*RES
1 *1992:Z *159:8 21.7857 
2 *159:8 *2004:A 10 
3 *159:8 *2093:A3 17.0357 
*END

*D_NET *160 0.000116531
*CONN
*I *1994:B I *D XOR2_X1
*I *1993:Z O *D MUX2_X1
*CAP
1 *1994:B 5.82656e-05
2 *1993:Z 5.82656e-05
3 *1994:B *1993:S 0
4 *1994:B *766:163 0
*RES
1 *1993:Z *1994:B 15.7143 
*END

*D_NET *161 0.000244679
*CONN
*I *1997:A I *D XOR2_X1
*I *1996:A1 I *D NAND2_X1
*I *1994:Z O *D XOR2_X1
*CAP
1 *1997:A 0
2 *1996:A1 3.45318e-05
3 *1994:Z 8.73863e-05
4 *161:6 0.000121918
5 *1996:A1 *1996:A2 8.43215e-07
6 *1996:A1 *1997:B 0
7 *1996:A1 *766:163 0
8 *161:6 *766:163 0
*RES
1 *1994:Z *161:6 13.75 
2 *161:6 *1996:A1 8.71429 
3 *161:6 *1997:A 5 
*END

*D_NET *162 0.000424568
*CONN
*I *1997:B I *D XOR2_X1
*I *1996:A2 I *D NAND2_X1
*I *1995:Z O *D MUX2_X1
*CAP
1 *1997:B 4.7219e-06
2 *1996:A2 4.19378e-05
3 *1995:Z 7.73122e-05
4 *162:8 0.000123972
5 *1996:A2 *1999:A1 1.72426e-05
6 *1996:A2 *1999:A2 0.000121198
7 *1997:B *766:163 3.09411e-06
8 *162:8 *766:163 3.2068e-05
9 *1996:A1 *1996:A2 8.43215e-07
10 *1996:A1 *1997:B 0
11 *95:267 *162:8 2.17833e-06
*RES
1 *1995:Z *162:8 13.6786 
2 *162:8 *1996:A2 22.1071 
3 *162:8 *1997:B 5.75 
*END

*D_NET *163 7.39627e-05
*CONN
*I *1999:A1 I *D NAND2_X1
*I *1996:ZN O *D NAND2_X1
*CAP
1 *1999:A1 2.06922e-05
2 *1996:ZN 2.06922e-05
3 *1999:A1 *1999:A2 1.53357e-05
4 *1996:A2 *1999:A1 1.72426e-05
*RES
1 *1996:ZN *1999:A1 22.9643 
*END

*D_NET *164 0.000280732
*CONN
*I *2000:B I *D XNOR2_X1
*I *1998:A2 I *D NAND2_X1
*I *1997:Z O *D XOR2_X1
*CAP
1 *2000:B 3.75787e-05
2 *1998:A2 9.4366e-06
3 *1997:Z 6.03422e-05
4 *164:8 0.000107357
5 *1998:A2 *524:302 0
6 *2000:B *1998:A1 2.64615e-05
7 *2000:B *1999:A2 2.3767e-06
8 *2000:B *170:12 1.4293e-06
9 *164:8 *1999:A2 2.25173e-05
10 *61:38 *1998:A2 1.32323e-05
*RES
1 *1997:Z *164:8 16.3571 
2 *164:8 *1998:A2 11.25 
3 *164:8 *2000:B 15 
*END

*D_NET *165 0.000684458
*CONN
*I *1999:A2 I *D NAND2_X1
*I *1998:ZN O *D NAND2_X1
*CAP
1 *1999:A2 9.55646e-05
2 *1998:ZN 9.55646e-05
3 *1999:A2 *166:8 3.49085e-06
4 *1999:A2 *170:12 0.000324354
5 *1999:A2 *524:302 9.62051e-07
6 *1996:A2 *1999:A2 0.000121198
7 *1999:A1 *1999:A2 1.53357e-05
8 *2000:B *1999:A2 2.3767e-06
9 *61:38 *1999:A2 3.09411e-06
10 *164:8 *1999:A2 2.25173e-05
*RES
1 *1998:ZN *1999:A2 39.2143 
*END

*D_NET *166 0.000441275
*CONN
*I *2004:B1 I *D OAI21_X4
*I *2093:A2 I *D OR3_X1
*I *1999:ZN O *D NAND2_X1
*CAP
1 *2004:B1 7.62689e-06
2 *2093:A2 7.46001e-05
3 *1999:ZN 6.56893e-05
4 *166:8 0.000147916
5 *2004:B1 *2094:B2 9.57492e-07
6 *2093:A2 *2094:B2 1.68643e-06
7 *2093:A2 *2096:B1 2.84174e-05
8 *2093:A2 *170:12 9.5257e-06
9 *166:8 *170:12 3.50975e-05
10 *1999:A2 *166:8 3.49085e-06
11 *2093:A3 *2093:A2 6.62667e-05
*RES
1 *1999:ZN *166:8 19.0714 
2 *166:8 *2093:A2 19.5714 
3 *166:8 *2004:B1 10.75 
*END

*D_NET *167 0.000454594
*CONN
*I *2099:B I *D XOR2_X1
*I *2003:A I *D AOI21_X4
*I *2000:ZN O *D XNOR2_X1
*CAP
1 *2099:B 4.03055e-05
2 *2003:A 2.57907e-05
3 *2000:ZN 6.56065e-05
4 *167:10 0.000131703
5 *2003:A *2003:B1 0
6 *2003:A *170:8 4.4596e-05
7 *2099:B *1998:A1 3.99139e-05
8 *2099:B *2002:B2 0
9 *2099:B *2003:B1 0
10 *167:10 *1998:A1 5.61491e-05
11 *167:10 *2002:B2 0
12 *167:10 *524:302 9.62051e-07
13 *167:10 *530:206 0
14 *95:251 *2003:A 4.95679e-05
*RES
1 *2000:ZN *167:10 18.4643 
2 *167:10 *2003:A 14.75 
3 *167:10 *2099:B 15.6786 
*END

*D_NET *168 0.000338855
*CONN
*I *2002:A I *D AOI21_X1
*I *2001:ZN O *D AND2_X1
*CAP
1 *2002:A 8.24666e-05
2 *2001:ZN 8.24666e-05
3 *2002:A *1849:A 0
4 *2002:A *1849:S 2.06549e-05
5 *2002:A *1850:A 0
6 *2002:A *1852:S 1.8525e-05
7 *2002:A *1853:A 8.22158e-05
8 *2002:A *2002:B1 8.26038e-06
9 *2002:A *771:10 4.42655e-05
10 *2002:A *1242:14 0
*RES
1 *2001:ZN *2002:A 32.5357 
*END

*D_NET *169 0.000432393
*CONN
*I *2098:A2 I *D NAND2_X1
*I *2003:B1 I *D AOI21_X4
*I *2002:ZN O *D AOI21_X1
*CAP
1 *2098:A2 1.25176e-05
2 *2003:B1 3.91832e-05
3 *2002:ZN 7.28585e-05
4 *169:8 0.000124559
5 *2003:B1 *1998:A1 4.9678e-06
6 *2003:B1 *2002:B2 2.51177e-05
7 *2003:B1 *2099:A 0
8 *2003:B1 *170:8 0
9 *2098:A2 *1854:A 0
10 *2098:A2 *1998:A1 2.08416e-06
11 *2098:A2 *511:134 0
12 *169:8 *1854:B 6.92212e-05
13 *169:8 *2002:B2 8.10406e-05
14 *169:8 *2099:A 0
15 *2003:A *2003:B1 0
16 *2098:A1 *2098:A2 8.43215e-07
17 *2099:B *2003:B1 0
*RES
1 *2002:ZN *169:8 21.7857 
2 *169:8 *2003:B1 14.8929 
3 *169:8 *2098:A2 11.25 
*END

*D_NET *170 0.00136867
*CONN
*I *2004:B2 I *D OAI21_X4
*I *2093:A1 I *D OR3_X1
*I *2003:ZN O *D AOI21_X4
*CAP
1 *2004:B2 8.39087e-06
2 *2093:A1 6.36214e-05
3 *2003:ZN 5.47193e-05
4 *170:12 0.000367025
5 *170:8 0.000349732
6 *2004:B2 *2094:B2 1.10138e-05
7 *2093:A1 *2094:B2 3.35822e-05
8 *2093:A1 *2096:B1 8.33759e-07
9 *170:8 *1998:A1 0
10 *170:12 *1998:A1 5.40612e-05
11 *1999:A2 *170:12 0.000324354
12 *2000:B *170:12 1.4293e-06
13 *2003:A *170:8 4.4596e-05
14 *2003:B1 *170:8 0
15 *2093:A2 *170:12 9.5257e-06
16 *2093:A3 *2093:A1 0
17 *95:251 *170:8 1.06847e-05
18 *166:8 *170:12 3.50975e-05
*RES
1 *2003:ZN *170:8 16.75 
2 *170:8 *170:12 45.9643 
3 *170:12 *2093:A1 21.2143 
4 *170:12 *2004:B2 6.25 
*END

*D_NET *171 0.00160526
*CONN
*I *2094:B1 I *D AOI21_X1
*I *2007:B1 I *D AOI21_X4
*I *2087:A1 I *D NAND2_X1
*I *2004:ZN O *D OAI21_X4
*CAP
1 *2094:B1 3.91012e-05
2 *2007:B1 1.75284e-05
3 *2087:A1 3.78136e-05
4 *2004:ZN 0.000156028
5 *171:14 0.000245753
6 *171:12 0.000307337
7 *2007:B1 *2007:B2 1.81144e-05
8 *2007:B1 *174:10 0
9 *2007:B1 *530:6 0
10 *2087:A1 *1989:A 4.40066e-06
11 *2087:A1 *2007:B2 3.78372e-06
12 *2087:A1 *173:12 2.16072e-07
13 *2087:A1 *174:10 5.02475e-06
14 *2094:B1 *2094:A 2.39679e-06
15 *2094:B1 *2094:B2 2.45282e-05
16 *2094:B1 *2096:B1 3.65501e-05
17 *171:12 *1992:A 7.62298e-06
18 *171:12 *2096:B1 4.66503e-05
19 *171:12 *524:287 0
20 *171:12 *1102:19 6.48397e-06
21 *171:12 *1233:34 3.02673e-05
22 *171:14 *1988:S 2.70312e-05
23 *171:14 *1989:A 1.55226e-05
24 *171:14 *1992:A 2.63456e-06
25 *171:14 *2006:A 1.63562e-05
26 *171:14 *2006:B2 0.000429909
27 *171:14 *173:12 0
28 *1992:B *171:12 3.01743e-06
29 *2005:A2 *171:14 1.40462e-05
30 *2086:A2 *2087:A1 6.50827e-06
31 *2086:A2 *171:14 1.86133e-05
32 *159:8 *171:12 8.20193e-05
*RES
1 *2004:ZN *171:12 28.7857 
2 *171:12 *171:14 31.3572 
3 *171:14 *2087:A1 14.3571 
4 *171:14 *2007:B1 12.25 
5 *2004:ZN *2094:B1 15.9286 
*END

*D_NET *172 0.000215942
*CONN
*I *2006:A I *D AOI21_X1
*I *2005:ZN O *D AND2_X1
*CAP
1 *2006:A 6.73548e-05
2 *2005:ZN 6.73548e-05
3 *2006:A *1602:A 3.23209e-05
4 *2006:A *2237:CK 0
5 *2006:A *173:12 3.25548e-05
6 *171:14 *2006:A 1.63562e-05
*RES
1 *2005:ZN *2006:A 28.9286 
*END

*D_NET *173 0.000805397
*CONN
*I *2007:B2 I *D AOI21_X4
*I *2087:A2 I *D NAND2_X1
*I *2006:ZN O *D AOI21_X1
*CAP
1 *2007:B2 3.61767e-05
2 *2087:A2 2.15055e-05
3 *2006:ZN 0.000236895
4 *173:12 0.000294577
5 *2007:B2 *530:6 6.07779e-06
6 *2087:A2 *2088:B 6.99525e-06
7 *173:12 *1988:S 6.2553e-05
8 *173:12 *174:10 0
9 *173:12 *530:6 1.28122e-06
10 *2006:A *173:12 3.25548e-05
11 *2007:B1 *2007:B2 1.81144e-05
12 *2086:A2 *2087:A2 6.84295e-05
13 *2086:A2 *173:12 1.62366e-05
14 *2087:A1 *2007:B2 3.78372e-06
15 *2087:A1 *173:12 2.16072e-07
16 *171:14 *173:12 0
*RES
1 *2006:ZN *173:12 44.3214 
2 *173:12 *2087:A2 18.6429 
3 *173:12 *2007:B2 9.25 
*END

*D_NET *174 0.00120587
*CONN
*I *2011:B1 I *D OAI21_X4
*I *2082:A2 I *D OR3_X1
*I *2007:ZN O *D AOI21_X4
*CAP
1 *2011:B1 0
2 *2082:A2 6.13043e-05
3 *2007:ZN 0.000396898
4 *174:14 8.01201e-05
5 *174:10 0.000415714
6 *2082:A2 *1978:B 4.32319e-05
7 *2082:A2 *2082:A3 3.96365e-05
8 *2082:A2 *177:10 3.19164e-07
9 *2082:A2 *511:69 1.76415e-05
10 *174:10 *1547:A 5.44551e-06
11 *174:10 *1987:A 4.14913e-06
12 *174:10 *1989:A 3.65322e-06
13 *174:10 *2010:A2 8.14641e-05
14 *174:10 *177:10 0
15 *174:10 *524:116 0
16 *174:10 *530:6 0
17 *174:10 *530:29 0
18 *174:14 *511:69 7.47756e-06
19 *1986:A *174:10 0
20 *1987:B *174:10 0
21 *2007:A *174:10 8.30738e-06
22 *2007:B1 *174:10 0
23 *2011:A *2082:A2 1.86444e-05
24 *2087:A1 *174:10 5.02475e-06
25 *151:12 *174:10 0
26 *154:6 *174:10 1.68352e-05
27 *173:12 *174:10 0
*RES
1 *2007:ZN *174:10 47.4286 
2 *174:10 *174:14 7.28572 
3 *174:14 *2082:A2 19.0714 
4 *174:14 *2011:B1 10 
*END

*D_NET *175 0.0001038
*CONN
*I *2010:A1 I *D NAND2_X1
*I *2008:ZN O *D NAND2_X1
*CAP
1 *2010:A1 4.09469e-05
2 *2008:ZN 4.09469e-05
3 *2010:A1 *1987:A 7.62806e-06
4 *2010:A1 *2010:A2 1.32323e-05
5 *2010:A1 *177:10 1.04584e-06
6 *2010:A1 *511:73 0
*RES
1 *2008:ZN *2010:A1 14.6786 
*END

*D_NET *176 0.000410378
*CONN
*I *2010:A2 I *D NAND2_X1
*I *2009:ZN O *D NAND2_X1
*CAP
1 *2010:A2 0.000128527
2 *2009:ZN 0.000128527
3 *2010:A2 *1547:A 5.54369e-05
4 *2010:A2 *1987:A 0
5 *2010:A2 *511:73 3.19164e-06
6 *2010:A2 *524:116 0
7 *2010:A1 *2010:A2 1.32323e-05
8 *174:10 *2010:A2 8.14641e-05
*RES
1 *2009:ZN *2010:A2 35.3571 
*END

*D_NET *177 0.000384809
*CONN
*I *2011:B2 I *D OAI21_X4
*I *2082:A3 I *D OR3_X1
*I *2010:ZN O *D NAND2_X1
*CAP
1 *2011:B2 0
2 *2082:A3 4.92604e-05
3 *2010:ZN 9.65957e-05
4 *177:10 0.000145856
5 *2082:A3 *2083:B2 0
6 *2082:A3 *178:8 1.27666e-06
7 *2082:A3 *178:10 0
8 *177:10 *1978:B 5.01029e-05
9 *177:10 *2083:B2 0
10 *177:10 *178:8 7.16188e-07
11 *177:10 *511:73 0
12 *2010:A1 *177:10 1.04584e-06
13 *2082:A2 *2082:A3 3.96365e-05
14 *2082:A2 *177:10 3.19164e-07
15 *174:10 *177:10 0
*RES
1 *2010:ZN *177:10 16.1071 
2 *177:10 *2082:A3 11.1071 
3 *177:10 *2011:B2 5 
*END

*D_NET *178 0.000379315
*CONN
*I *2083:B1 I *D AOI21_X1
*I *2014:B1 I *D AOI21_X4
*I *2076:A1 I *D NAND2_X1
*I *2011:ZN O *D OAI21_X4
*CAP
1 *2083:B1 7.54016e-06
2 *2014:B1 3.72861e-05
3 *2076:A1 2.14476e-05
4 *2011:ZN 4.43429e-05
5 *178:10 0.00010419
6 *178:8 9.73389e-05
7 *2014:B1 *2076:A2 0
8 *2014:B1 *2077:B 5.22944e-06
9 *2014:B1 *511:56 2.13261e-05
10 *2076:A1 *2083:B2 0
11 *178:8 *511:56 1.21774e-06
12 *178:8 *511:69 8.81053e-06
13 *178:8 *524:116 0
14 *178:10 *511:56 2.6197e-05
15 *2014:A *2014:B1 2.39679e-06
16 *2082:A3 *178:8 1.27666e-06
17 *2082:A3 *178:10 0
18 *177:10 *178:8 7.16188e-07
*RES
1 *2011:ZN *178:8 10.1786 
2 *178:8 *178:10 5.75 
3 *178:10 *2076:A1 7.28572 
4 *178:10 *2014:B1 9.75 
5 *178:8 *2083:B1 5.92857 
*END

*D_NET *179 0.000252995
*CONN
*I *2013:A I *D AOI21_X1
*I *2012:ZN O *D AND2_X1
*CAP
1 *2013:A 8.47819e-05
2 *2012:ZN 8.47819e-05
3 *2013:A *180:10 8.22137e-05
4 *1979:B *2013:A 0
5 *1982:B *2013:A 0
6 *2012:A2 *2013:A 1.21774e-06
7 *148:6 *2013:A 0
*RES
1 *2012:ZN *2013:A 30.0714 
*END

*D_NET *180 0.000572995
*CONN
*I *2014:B2 I *D AOI21_X4
*I *2076:A2 I *D NAND2_X1
*I *2013:ZN O *D AOI21_X1
*CAP
1 *2014:B2 1.62389e-05
2 *2076:A2 3.96395e-05
3 *2013:ZN 0.000129758
4 *180:10 0.000185637
5 *2076:A2 *2077:B 1.1025e-05
6 *1979:B *180:10 7.77781e-06
7 *1982:B *180:10 4.97191e-06
8 *2013:A *180:10 8.22137e-05
9 *2014:A *2014:B2 3.81944e-05
10 *2014:A *180:10 4.37715e-05
11 *2014:B1 *2076:A2 0
12 *148:6 *180:10 1.37673e-05
*RES
1 *2013:ZN *180:10 26.9286 
2 *180:10 *2076:A2 14.25 
3 *180:10 *2014:B2 12.2857 
*END

*D_NET *181 0.00111604
*CONN
*I *2015:B2 I *D OAI21_X4
*I *2071:A1 I *D OR3_X1
*I *2014:ZN O *D AOI21_X4
*CAP
1 *2015:B2 0
2 *2071:A1 8.90081e-05
3 *2014:ZN 0.000325632
4 *181:6 0.00041464
5 *2071:A1 *2072:B2 1.77822e-05
6 *2071:A1 *2074:B1 1.11357e-05
7 *2071:A1 *182:6 6.44574e-06
8 *2071:A1 *511:56 0
9 *2071:A1 *1248:10 0
10 *181:6 *1977:A 3.19027e-05
11 *181:6 *2077:B 1.40196e-05
12 *181:6 *2078:A2 0
13 *181:6 *511:56 0
14 *1976:A2 *181:6 0.000149063
15 *1977:B *181:6 1.14895e-05
16 *2014:A *181:6 1.60038e-06
17 *2015:A *2071:A1 8.56032e-06
18 *2071:A2 *2071:A1 9.00659e-06
19 *2121:A *2071:A1 0
20 *141:6 *181:6 4.29713e-06
21 *143:6 *2071:A1 1.40196e-06
22 *143:6 *181:6 1.52561e-05
23 *144:8 *181:6 4.79658e-06
*RES
1 *2014:ZN *181:6 43.25 
2 *181:6 *2071:A1 25.1429 
3 *181:6 *2015:B2 5 
*END

*D_NET *182 0.000941994
*CONN
*I *2072:B1 I *D AOI21_X1
*I *2065:A1 I *D NAND2_X1
*I *2016:B2 I *D AOI21_X4
*I *2015:ZN O *D OAI21_X4
*CAP
1 *2072:B1 8.71307e-06
2 *2065:A1 0
3 *2016:B2 8.12512e-05
4 *2015:ZN 3.08753e-05
5 *182:12 0.000404949
6 *182:6 0.000363286
7 *2016:B2 *2066:A 5.52692e-06
8 *182:6 *2072:A 3.65322e-06
9 *182:6 *511:56 5.11118e-06
10 *182:12 *2064:A1 0
11 *182:12 *2066:A 9.62051e-07
12 *182:12 *2067:A1 8.62199e-06
13 *182:12 *2067:A2 0
14 *182:12 *2069:A 0
15 *182:12 *2069:B2 1.83411e-06
16 *182:12 *2072:A 1.21774e-06
17 *2015:A *182:6 0
18 *2015:A *182:12 0
19 *2016:B1 *2016:B2 0
20 *2065:A2 *2016:B2 0
21 *2065:A2 *182:12 1.21774e-06
22 *2066:B *2016:B2 1.83288e-05
23 *2070:A2 *182:12 0
24 *2071:A1 *182:6 6.44574e-06
25 *136:8 *182:12 0
*RES
1 *2015:ZN *182:6 8.75 
2 *182:6 *182:12 32.1072 
3 *182:12 *2016:B2 23.5714 
4 *182:12 *2065:A1 5 
5 *182:6 *2072:B1 5.92857 
*END

*D_NET *183 0.000745465
*CONN
*I *2020:B1 I *D OAI21_X4
*I *2060:A2 I *D OR3_X1
*I *2016:ZN O *D AOI21_X4
*CAP
1 *2020:B1 5.83082e-05
2 *2060:A2 6.07073e-06
3 *2016:ZN 0.000257987
4 *183:8 0.000322366
5 *2020:B1 *2060:A3 2.07643e-05
6 *2020:B1 *187:6 3.90865e-05
7 *2060:A2 *2060:A3 1.32348e-05
8 *183:8 *2019:A2 0
9 *2060:A1 *2060:A2 1.32348e-05
10 *129:8 *183:8 1.44121e-05
*RES
1 *2016:ZN *183:8 38.75 
2 *183:8 *2060:A2 11.25 
3 *183:8 *2020:B1 17.0357 
*END

*D_NET *184 0.000115563
*CONN
*I *2019:A1 I *D NAND2_X1
*I *2017:ZN O *D NAND2_X1
*CAP
1 *2019:A1 5.77814e-05
2 *2017:ZN 5.77814e-05
3 *2017:A2 *2019:A1 0
*RES
1 *2017:ZN *2019:A1 15.7857 
*END

*D_NET *185 0.000177864
*CONN
*I *2019:A2 I *D NAND2_X1
*I *2018:ZN O *D NAND2_X1
*CAP
1 *2019:A2 6.9311e-05
2 *2018:ZN 6.9311e-05
3 *2019:A2 *2018:A1 3.53824e-06
4 *128:8 *2019:A2 3.5704e-05
5 *183:8 *2019:A2 0
*RES
1 *2018:ZN *2019:A2 28.3929 
*END

*D_NET *186 0.000422556
*CONN
*I *2020:B2 I *D OAI21_X4
*I *2060:A3 I *D OR3_X1
*I *2019:ZN O *D NAND2_X1
*CAP
1 *2020:B2 2.795e-05
2 *2060:A3 4.51669e-05
3 *2019:ZN 8.28987e-05
4 *186:8 0.000156016
5 *2060:A3 *187:6 2.61827e-06
6 *186:8 *2018:A1 4.84565e-05
7 *2020:B1 *2060:A3 2.07643e-05
8 *2060:A1 *2060:A3 1.99211e-05
9 *2060:A2 *2060:A3 1.32348e-05
10 *124:12 *2060:A3 5.52959e-06
*RES
1 *2019:ZN *186:8 21.1071 
2 *186:8 *2060:A3 16.75 
3 *186:8 *2020:B2 13.0357 
*END

*D_NET *187 0.000739471
*CONN
*I *2061:B1 I *D AOI21_X1
*I *2054:A1 I *D NAND2_X1
*I *2023:B1 I *D AOI21_X4
*I *2020:ZN O *D OAI21_X4
*CAP
1 *2061:B1 3.65958e-05
2 *2054:A1 0
3 *2023:B1 5.9116e-05
4 *2020:ZN 3.77419e-05
5 *187:12 0.000175842
6 *187:6 0.000191064
7 *2023:B1 *2023:B2 4.32319e-05
8 *2023:B1 *2054:A2 5.58704e-05
9 *2023:B1 *2055:B 3.19164e-07
10 *2061:B1 *2061:B2 3.41146e-05
11 *2061:B1 *511:22 8.26038e-06
12 *187:12 *511:18 0
13 *2020:B1 *187:6 3.90865e-05
14 *2023:A *2023:B1 5.56098e-05
15 *2060:A3 *187:6 2.61827e-06
*RES
1 *2020:ZN *187:6 9.75 
2 *187:6 *187:12 22.4643 
3 *187:12 *2023:B1 24.3929 
4 *187:12 *2054:A1 5 
5 *187:6 *2061:B1 9.75 
*END

*D_NET *188 0.000163209
*CONN
*I *2022:A I *D AOI21_X1
*I *2021:ZN O *D AND2_X1
*CAP
1 *2022:A 7.65853e-05
2 *2021:ZN 7.65853e-05
3 *2022:A *189:8 4.31185e-06
4 *2021:A2 *2022:A 2.97287e-06
5 *2022:B1 *2022:A 2.75346e-06
6 *99:88 *2022:A 0
7 *99:98 *2022:A 0
*RES
1 *2021:ZN *2022:A 16.9643 
*END

*D_NET *189 0.000632413
*CONN
*I *2023:B2 I *D AOI21_X4
*I *2054:A2 I *D NAND2_X1
*I *2022:ZN O *D AOI21_X1
*CAP
1 *2023:B2 2.03139e-05
2 *2054:A2 7.78304e-05
3 *2022:ZN 0.000140888
4 *189:8 0.000239032
5 *189:8 *1955:A 0
6 *2021:A1 *189:8 0
7 *2022:A *189:8 4.31185e-06
8 *2022:B1 *189:8 5.01004e-05
9 *2023:B1 *2023:B2 4.32319e-05
10 *2023:B1 *2054:A2 5.58704e-05
11 *119:12 *2023:B2 8.33759e-07
12 *123:8 *189:8 0
*RES
1 *2022:ZN *189:8 25.25 
2 *189:8 *2054:A2 19.2143 
3 *189:8 *2023:B2 12.9643 
*END

*D_NET *190 0.00122196
*CONN
*I *2024:B2 I *D OAI21_X4
*I *2048:A1 I *D OR3_X1
*I *2023:ZN O *D AOI21_X4
*CAP
1 *2024:B2 3.43332e-05
2 *2048:A1 4.93205e-05
3 *2023:ZN 0.000186455
4 *190:10 0.000270108
5 *2024:B2 *1944:A 5.11191e-06
6 *190:10 *1955:A 1.92742e-05
7 *1951:A1 *190:10 3.99995e-05
8 *1951:A2 *190:10 0.000157391
9 *1952:B *190:10 8.27554e-05
10 *2024:A *2048:A1 4.32144e-07
11 *2024:B1 *2024:B2 4.11048e-05
12 *2048:A2 *2048:A1 1.51442e-05
13 *116:8 *190:10 0.00014057
14 *118:8 *2024:B2 2.51997e-05
15 *118:8 *190:10 0.000133304
16 *119:12 *190:10 2.14514e-05
*RES
1 *2023:ZN *190:10 40.5 
2 *190:10 *2048:A1 15.1786 
3 *190:10 *2024:B2 14.3214 
*END

*D_NET *191 0.00140343
*CONN
*I *2049:B1 I *D AOI21_X1
*I *2042:A1 I *D AND3_X1
*I *2025:B2 I *D AOI21_X4
*I *2024:ZN O *D OAI21_X4
*CAP
1 *2049:B1 0
2 *2042:A1 0
3 *2025:B2 7.72459e-05
4 *2024:ZN 7.67283e-05
5 *191:18 0.00024063
6 *191:6 0.000240112
7 *2025:B2 *2043:A2 3.92595e-06
8 *2025:B2 *511:8 8.48171e-06
9 *2025:B2 *524:10 7.78863e-06
10 *191:6 *2049:A 7.19036e-06
11 *191:6 *2049:B2 4.0688e-05
12 *191:18 *511:16 0.000238152
13 *191:18 *511:18 1.66988e-05
14 *1940:S *191:18 0.000249023
15 *2025:B1 *2025:B2 1.25215e-05
16 *2042:A3 *2025:B2 3.55053e-06
17 *2253:RN *191:18 1.75939e-05
18 *61:179 *191:18 0
19 *110:14 *191:18 0.000163095
*RES
1 *2024:ZN *191:6 14.25 
2 *191:6 *191:18 40.0714 
3 *191:18 *2025:B2 22.8929 
4 *191:18 *2042:A1 5 
5 *191:6 *2049:B1 5 
*END

*D_NET *192 0.00116281
*CONN
*I *2035:B2 I *D OAI21_X2
*I *2034:A1 I *D OR3_X1
*I *2043:A1 I *D NOR2_X1
*I *2025:ZN O *D AOI21_X4
*CAP
1 *2035:B2 1.57516e-05
2 *2034:A1 2.49814e-05
3 *2043:A1 0
4 *2025:ZN 4.70283e-05
5 *192:17 0.000442945
6 *192:8 0.00044924
7 *2034:A1 *2035:B1 4.26902e-05
8 *2034:A1 *195:10 7.72792e-06
9 *2034:A1 *1239:10 1.16067e-05
10 *2035:B2 *2035:B1 6.84316e-05
11 *2035:B2 *1239:10 1.47939e-05
12 *192:8 *2043:A2 1.00571e-05
13 *192:8 *2044:A2 0
14 *192:17 *1937:A 0
15 *192:17 *2028:A1 2.83077e-06
16 *192:17 *2028:A2 0
17 *192:17 *2044:A2 7.62912e-06
18 *192:17 *195:10 1.61428e-05
19 *192:17 *202:8 9.57492e-07
20 *192:17 *511:108 0
21 *1937:B *192:17 0
22 *104:8 *192:17 0
*RES
1 *2025:ZN *192:8 10.1786 
2 *192:8 *2043:A1 5 
3 *192:8 *192:17 44.75 
4 *192:17 *2034:A1 13.7143 
5 *192:17 *2035:B2 13.6429 
*END

*D_NET *193 0.00013275
*CONN
*I *2028:A1 I *D NAND2_X1
*I *2026:ZN O *D NAND2_X1
*CAP
1 *2028:A1 5.47704e-05
2 *2026:ZN 5.47704e-05
3 *2028:A1 *1933:B 7.14654e-06
4 *2028:A1 *195:10 1.32323e-05
5 *192:17 *2028:A1 2.83077e-06
*RES
1 *2026:ZN *2028:A1 26.25 
*END

*D_NET *194 7.82351e-05
*CONN
*I *2028:A2 I *D NAND2_X1
*I *2027:ZN O *D NAND2_X1
*CAP
1 *2028:A2 3.77408e-05
2 *2027:ZN 3.77408e-05
3 *2028:A2 *195:10 2.75346e-06
4 *2026:A1 *2028:A2 0
5 *192:17 *2028:A2 0
*RES
1 *2027:ZN *2028:A2 13.75 
*END

*D_NET *195 0.000480732
*CONN
*I *2034:A2 I *D OR3_X1
*I *2035:B1 I *D OAI21_X2
*I *2028:ZN O *D NAND2_X1
*CAP
1 *2034:A2 0
2 *2035:B1 3.67015e-05
3 *2028:ZN 0.00010203
4 *195:10 0.000138731
5 *2035:B1 *2033:A 5.20238e-07
6 *2035:B1 *2034:A3 2.6099e-05
7 *2035:B1 *200:8 1.81742e-05
8 *2035:B1 *1239:10 5.10087e-06
9 *195:10 *2034:A3 2.39679e-06
10 *2028:A1 *195:10 1.32323e-05
11 *2028:A2 *195:10 2.75346e-06
12 *2034:A1 *2035:B1 4.26902e-05
13 *2034:A1 *195:10 7.72792e-06
14 *2035:B2 *2035:B1 6.84316e-05
15 *192:17 *195:10 1.61428e-05
*RES
1 *2028:ZN *195:10 16.4286 
2 *195:10 *2035:B1 22.0357 
3 *195:10 *2034:A2 5 
*END

*D_NET *196 0.000400969
*CONN
*I *2030:B I *D XOR2_X1
*I *2029:Z O *D MUX2_X1
*CAP
1 *2030:B 3.39294e-05
2 *2029:Z 3.39294e-05
3 *2030:B *2029:B 0.000185923
4 *2030:B *2030:A 0.000147187
5 *2029:S *2030:B 0
*RES
1 *2029:Z *2030:B 29.75 
*END

*D_NET *197 0.000651335
*CONN
*I *2135:A1 I *D NAND2_X1
*I *2032:A I *D XOR2_X1
*I *2030:Z O *D XOR2_X1
*CAP
1 *2135:A1 1.70305e-05
2 *2032:A 4.23371e-05
3 *2030:Z 0.000216791
4 *197:8 0.000276159
5 *2032:A *2135:A2 5.41806e-05
6 *2032:A *272:12 0
7 *2135:A1 *1240:12 4.24402e-05
8 *197:8 *2135:A2 2.39679e-06
9 *2029:S *197:8 0
10 *99:164 *197:8 0
*RES
1 *2030:Z *197:8 26.3572 
2 *197:8 *2032:A 10.25 
3 *197:8 *2135:A1 17.2857 
*END

*D_NET *198 0.000305799
*CONN
*I *2135:A2 I *D NAND2_X1
*I *2032:B I *D XOR2_X1
*I *2031:Z O *D MUX2_X1
*CAP
1 *2135:A2 4.78904e-05
2 *2032:B 0.000109666
3 *2031:Z 6.17758e-05
4 *2032:B *2031:B 1.21072e-05
5 *2032:B *2136:A1 0
6 *2032:B *199:12 1.77822e-05
7 *2032:B *271:8 0
8 *2032:B *1240:12 0
9 *2135:A2 *272:12 0
10 *2032:A *2135:A2 5.41806e-05
11 *99:149 *2135:A2 0
12 *99:158 *2135:A2 0
13 *197:8 *2135:A2 2.39679e-06
*RES
1 *2031:Z *2032:B 27.0357 
2 *2032:B *2135:A2 15.75 
*END

*D_NET *199 0.000425743
*CONN
*I *2033:B I *D XOR2_X1
*I *2136:A2 I *D NAND2_X1
*I *2032:Z O *D XOR2_X1
*CAP
1 *2033:B 5.46142e-05
2 *2136:A2 0
3 *2032:Z 0.000114765
4 *199:12 0.000169379
5 *2033:B *2033:A 3.83757e-05
6 *2033:B *2136:A1 8.26038e-06
7 *199:12 *2136:A1 0
8 *199:12 *271:8 0
9 *199:12 *272:12 2.25658e-05
10 *2032:B *199:12 1.77822e-05
*RES
1 *2032:Z *199:12 27.6429 
2 *199:12 *2136:A2 5 
3 *199:12 *2033:B 11.6786 
*END

*D_NET *200 0.000409471
*CONN
*I *2035:A I *D OAI21_X2
*I *2034:A3 I *D OR3_X1
*I *2033:Z O *D XOR2_X1
*CAP
1 *2035:A 5.86785e-06
2 *2034:A3 3.18491e-05
3 *2033:Z 9.75619e-05
4 *200:8 0.000135279
5 *2034:A3 *2033:A 1.49198e-05
6 *2035:A *202:8 1.26998e-05
7 *200:8 *2033:A 5.22759e-05
8 *200:8 *2136:A1 2.77917e-07
9 *200:8 *1239:10 1.20695e-05
10 *2035:B1 *2034:A3 2.6099e-05
11 *2035:B1 *200:8 1.81742e-05
12 *195:10 *2034:A3 2.39679e-06
*RES
1 *2033:Z *200:8 23.8214 
2 *200:8 *2034:A3 14.8929 
3 *200:8 *2035:A 11.25 
*END

*D_NET *201 0.000161077
*CONN
*I *2036:B1 I *D AOI21_X1
*I *2034:ZN O *D OR3_X1
*CAP
1 *2036:B1 6.64135e-05
2 *2034:ZN 6.64135e-05
3 *2036:B1 *2040:B1 2.57909e-05
4 *2036:B1 *202:8 2.24327e-06
5 *2036:B1 *202:19 2.16072e-07
*RES
1 *2034:ZN *2036:B1 26.8929 
*END

*D_NET *202 0.000696274
*CONN
*I *2142:A3 I *D AND4_X2
*I *2144:A3 I *D NAND3_X1
*I *2036:B2 I *D AOI21_X1
*I *2035:ZN O *D OAI21_X2
*CAP
1 *2142:A3 4.50643e-05
2 *2144:A3 6.07591e-06
3 *2036:B2 0
4 *2035:ZN 5.89425e-05
5 *202:19 0.000199813
6 *202:8 0.000207615
7 *2142:A3 *2142:A2 5.01029e-05
8 *2142:A3 *2145:C2 1.64551e-05
9 *2142:A3 *272:12 5.64879e-06
10 *2142:A3 *1240:12 1.90574e-06
11 *2144:A3 *2142:A1 1.32323e-05
12 *2144:A3 *2142:A2 1.32323e-05
13 *202:8 *511:108 2.1898e-05
14 *202:19 *511:117 2.04447e-05
15 *202:19 *1240:12 1.97274e-05
16 *2035:A *202:8 1.26998e-05
17 *2036:B1 *202:8 2.24327e-06
18 *2036:B1 *202:19 2.16072e-07
19 *192:17 *202:8 9.57492e-07
*RES
1 *2035:ZN *202:8 11.6786 
2 *202:8 *2036:B2 5 
3 *202:8 *202:19 21.25 
4 *202:19 *2144:A3 11.25 
5 *202:19 *2142:A3 16.3571 
*END

*D_NET *203 0.000591939
*CONN
*I *2040:B1 I *D OAI21_X1
*I *2036:ZN O *D AOI21_X1
*CAP
1 *2040:B1 0.00018194
2 *2036:ZN 0.00018194
3 *2040:B1 *2033:A 0.00012016
4 *2040:B1 *2040:B2 4.30918e-06
5 *2040:B1 *2255:D 2.75346e-06
6 *2040:B1 *2256:CK 4.48425e-06
7 *2040:B1 *524:248 0
8 *2040:B1 *530:221 6.5029e-05
9 *2040:B1 *1419:58 3.13512e-06
10 *2036:B1 *2040:B1 2.57909e-05
11 *2040:A *2040:B1 2.39679e-06
*RES
1 *2036:ZN *2040:B1 44.5714 
*END

*D_NET *204 0.00378934
*CONN
*I *1892:B2 I *D AOI21_X1
*I *1890:A2 I *D NOR2_X1
*I *1889:B2 I *D AOI21_X1
*I *1887:A2 I *D NOR2_X1
*I *1901:B2 I *D AOI21_X1
*I *1899:A2 I *D NOR2_X1
*I *1902:A2 I *D NOR2_X1
*I *1904:B2 I *D AOI21_X1
*I *1884:A2 I *D NOR2_X1
*I *1886:B2 I *D AOI21_X1
*I *1907:B2 I *D AOI21_X1
*I *1905:A2 I *D NOR2_X1
*I *2748:Z O *D BUF_X2
*CAP
1 *1892:B2 1.26833e-05
2 *1890:A2 8.92373e-06
3 *1889:B2 0
4 *1887:A2 4.56019e-05
5 *1901:B2 0
6 *1899:A2 8.78625e-05
7 *1902:A2 0
8 *1904:B2 0
9 *1884:A2 8.81644e-06
10 *1886:B2 6.95544e-05
11 *1907:B2 0
12 *1905:A2 4.85557e-05
13 *2748:Z 0.000112027
14 *204:126 4.56019e-05
15 *204:108 0.000282195
16 *204:93 0.00026002
17 *204:76 7.86725e-05
18 *204:50 0.000236382
19 *204:43 0.000172885
20 *204:28 0.000148373
21 *204:24 0.000275808
22 *204:18 0.000320401
23 *204:16 0.000231946
24 *204:12 0.00020521
25 *1884:A2 *1266:8 8.43215e-07
26 *1886:B2 *1885:B2 5.66324e-05
27 *1887:A2 *1887:A1 1.21774e-06
28 *1890:A2 *2155:A 2.61812e-06
29 *1899:A2 *1258:57 5.62265e-05
30 *1905:A2 *1903:B2 4.12796e-06
31 *1905:A2 *1905:A1 1.28987e-05
32 *1905:A2 *1258:180 0
33 *1905:A2 *1265:8 1.07633e-05
34 *204:12 *1615:A 0.00021216
35 *204:12 *1888:B2 0
36 *204:12 *1260:8 0
37 *204:12 *1421:14 5.52692e-06
38 *204:16 *1890:A1 2.11815e-06
39 *204:16 *2226:CK 0
40 *204:16 *1420:83 0
41 *204:18 *2155:A 8.01584e-06
42 *204:18 *1420:87 9.81792e-06
43 *204:24 *2225:CK 4.09851e-05
44 *204:24 *763:31 1.28987e-05
45 *204:24 *1258:92 3.83909e-06
46 *204:24 *1258:94 8.95027e-06
47 *204:24 *1420:87 7.38328e-06
48 *204:28 *1903:B1 2.97556e-06
49 *204:28 *1903:B2 4.62385e-05
50 *204:28 *763:16 1.46687e-06
51 *204:28 *1258:180 0
52 *204:43 *1905:A1 1.26998e-05
53 *204:76 *763:31 6.56007e-06
54 *204:76 *1258:92 2.55787e-06
55 *204:93 *2230:CK 0
56 *204:93 *763:31 1.13125e-05
57 *204:108 *1900:B2 0
58 *204:108 *1902:A1 3.09411e-06
59 *204:108 *2229:CK 0
60 *204:108 *763:31 0
61 *1886:A *1886:B2 2.14856e-06
62 *1886:A *204:50 2.87234e-05
63 *1886:B1 *1886:B2 3.34048e-07
64 *1889:A *1887:A2 1.15057e-05
65 *1889:B1 *1887:A2 8.43215e-07
66 *1892:A *1892:B2 1.87637e-06
67 *1892:A *204:16 3.55708e-05
68 *1892:B1 *1892:B2 2.75346e-06
69 *1901:A *1899:A2 0.000196007
70 *1904:A *204:76 2.16072e-07
71 *1904:A *204:93 3.14626e-05
72 *1904:B1 *204:28 1.46241e-05
73 *1904:B1 *204:93 4.88118e-06
74 *1906:A2 *204:50 0
75 *1907:A *204:43 2.30024e-06
76 *1907:B1 *204:50 6.54773e-05
77 *2225:D *204:18 5.7416e-06
78 *2225:D *204:24 5.52934e-05
79 *2226:D *204:12 6.32461e-06
80 *2226:D *204:16 3.30471e-05
81 *2229:D *204:108 1.32323e-05
82 *2230:D *204:93 5.20822e-05
83 *2231:D *204:43 2.39679e-06
84 *2231:D *204:50 1.32348e-05
85 *2231:RN *1905:A2 0
86 *2232:D *1886:B2 6.50827e-06
87 *97:8 *1887:A2 0
88 *98:33 *1892:B2 2.43548e-06
89 *98:33 *204:16 4.87096e-06
*RES
1 *2748:Z *204:12 30.75 
2 *204:12 *204:16 14.75 
3 *204:16 *204:18 15.8571 
4 *204:18 *204:24 27.5714 
5 *204:24 *204:28 16.1071 
6 *204:28 *1905:A2 15.5357 
7 *204:28 *204:43 6.75 
8 *204:43 *1907:B2 5 
9 *204:43 *204:50 19.75 
10 *204:50 *1886:B2 24.0714 
11 *204:50 *1884:A2 5.75 
12 *204:24 *204:76 1.75 
13 *204:76 *1904:B2 5 
14 *204:76 *204:93 19.2143 
15 *204:93 *1902:A2 5 
16 *204:93 *204:108 30.25 
17 *204:108 *1899:A2 27.4643 
18 *204:108 *1901:B2 5 
19 *204:18 *204:126 5 
20 *204:126 *1887:A2 9.75 
21 *204:126 *1889:B2 5 
22 *204:16 *1890:A2 10.9286 
23 *204:12 *1892:B2 6.67857 
*END

*D_NET *206 0.000351581
*CONN
*I *2040:B2 I *D OAI21_X1
*I *2039:ZN O *D OAI21_X1
*CAP
1 *2040:B2 8.52164e-05
2 *2039:ZN 8.52164e-05
3 *2040:B2 *1541:B 5.11574e-06
4 *2040:B2 *2255:D 2.80752e-05
5 *2040:B2 *530:221 0
6 *2040:B2 *1419:58 0.000143648
7 *2040:B1 *2040:B2 4.30918e-06
*RES
1 *2039:ZN *2040:B2 31.4643 
*END

*D_NET *207 0.000270059
*CONN
*I *2046:A I *D OAI21_X1
*I *2041:ZN O *D NAND2_X1
*CAP
1 *2046:A 4.42696e-05
2 *2041:ZN 4.42696e-05
3 *2046:A *1937:A 1.19839e-05
4 *2046:A *2046:B1 2.39679e-06
5 *2046:A *2254:CK 0.000106874
6 *2046:A *503:8 2.97112e-05
7 *2046:A *1419:66 3.02351e-05
8 *61:179 *2046:A 3.19164e-07
*RES
1 *2041:ZN *2046:A 28.2857 
*END

*D_NET *208 0.000245585
*CONN
*I *2043:A2 I *D NOR2_X1
*I *2042:ZN O *D AND3_X1
*CAP
1 *2043:A2 8.26316e-05
2 *2042:ZN 8.26316e-05
3 *2043:A2 *2044:A2 2.70833e-06
4 *2025:B1 *2043:A2 1.80284e-05
5 *2025:B2 *2043:A2 3.92595e-06
6 *2042:A3 *2043:A2 3.19642e-05
7 *104:8 *2043:A2 1.3638e-05
8 *192:8 *2043:A2 1.00571e-05
*RES
1 *2042:ZN *2043:A2 20.6071 
*END

*D_NET *209 0.000161564
*CONN
*I *2044:A2 I *D NOR2_X1
*I *2043:ZN O *D NOR2_X1
*CAP
1 *2044:A2 6.15598e-05
2 *2043:ZN 6.15598e-05
3 *2043:A2 *2044:A2 2.70833e-06
4 *104:8 *2044:A2 2.81073e-05
5 *192:8 *2044:A2 0
6 *192:17 *2044:A2 7.62912e-06
*RES
1 *2043:ZN *2044:A2 16.4643 
*END

*D_NET *210 0.000190038
*CONN
*I *2046:B1 I *D OAI21_X1
*I *2044:ZN O *D NOR2_X1
*CAP
1 *2046:B1 6.82748e-05
2 *2044:ZN 6.82748e-05
3 *2046:B1 *1937:A 1.93619e-05
4 *2046:B1 *2041:A1 1.20226e-05
5 *2046:B1 *2046:B2 1.5896e-05
6 *2046:B1 *2254:D 0
7 *2046:B1 *511:95 1.19642e-06
8 *2046:A *2046:B1 2.39679e-06
9 *61:179 *2046:B1 2.61469e-06
*RES
1 *2044:ZN *2046:B1 28.3929 
*END

*D_NET *211 0.00029561
*CONN
*I *2046:B2 I *D OAI21_X1
*I *2045:ZN O *D OAI21_X1
*CAP
1 *2046:B2 0.000111169
2 *2045:ZN 0.000111169
3 *2046:B2 *2041:A1 1.47955e-05
4 *2046:B2 *2045:A 3.49085e-06
5 *2046:B2 *2254:CK 0
6 *2046:B2 *1419:66 0
7 *2046:B1 *2046:B2 1.5896e-05
8 *2047:A2 *2046:B2 0
9 *61:179 *2046:B2 3.90891e-05
*RES
1 *2045:ZN *2046:B2 33.5 
*END

*D_NET *212 0.00028246
*CONN
*I *2051:A I *D OAI21_X1
*I *2047:ZN O *D NAND2_X1
*CAP
1 *2051:A 0.000115251
2 *2047:ZN 0.000115251
3 *2051:A *1513:B 5.01336e-06
4 *2051:A *2050:A 0
5 *2051:A *2051:B1 8.43215e-07
6 *2051:A *2051:B2 7.66204e-06
7 *2051:A *2253:CK 0
8 *2051:A *524:18 3.62278e-05
9 *2051:A *524:210 2.21194e-06
*RES
1 *2047:ZN *2051:A 23.25 
*END

*D_NET *213 0.000325018
*CONN
*I *2049:B2 I *D AOI21_X1
*I *2048:ZN O *D OR3_X1
*CAP
1 *2049:B2 0.000119916
2 *2048:ZN 0.000119916
3 *2024:A *2049:B2 3.19771e-05
4 *2024:B1 *2049:B2 1.25215e-05
5 *191:6 *2049:B2 4.0688e-05
*RES
1 *2048:ZN *2049:B2 24.1786 
*END

*D_NET *214 0.000125063
*CONN
*I *2051:B1 I *D OAI21_X1
*I *2049:ZN O *D AOI21_X1
*CAP
1 *2051:B1 6.09115e-05
2 *2049:ZN 6.09115e-05
3 *2051:B1 *2051:B2 2.39679e-06
4 *2051:A *2051:B1 8.43215e-07
*RES
1 *2049:ZN *2051:B1 16.6071 
*END

*D_NET *215 0.000140499
*CONN
*I *2051:B2 I *D OAI21_X1
*I *2050:ZN O *D OAI21_X1
*CAP
1 *2051:B2 6.52199e-05
2 *2050:ZN 6.52199e-05
3 *2051:A *2051:B2 7.66204e-06
4 *2051:B1 *2051:B2 2.39679e-06
5 *99:16 *2051:B2 0
*RES
1 *2050:ZN *2051:B2 16.7143 
*END

*D_NET *216 0.000239962
*CONN
*I *2058:A I *D OAI21_X1
*I *2052:ZN O *D NAND2_X1
*CAP
1 *2058:A 0.00010603
2 *2052:ZN 0.00010603
3 *2058:A *2057:A 0
4 *2058:A *2058:B1 2.75346e-06
5 *2058:A *2252:D 1.55319e-05
6 *2058:A *2252:CK 7.22054e-06
7 *95:81 *2058:A 2.39679e-06
*RES
1 *2052:ZN *2058:A 21.4643 
*END

*D_NET *218 0.000116466
*CONN
*I *2055:B I *D XOR2_X1
*I *2054:ZN O *D NAND2_X1
*CAP
1 *2055:B 5.54704e-05
2 *2054:ZN 5.54704e-05
3 *2055:B *1955:A 0
4 *2055:B *2056:A2 7.16188e-07
5 *2023:A *2055:B 1.39839e-06
6 *2023:B1 *2055:B 3.19164e-07
7 *119:12 *2055:B 3.09143e-06
*RES
1 *2054:ZN *2055:B 16.1429 
*END

*D_NET *219 0.000201117
*CONN
*I *2056:A2 I *D AND2_X1
*I *2055:Z O *D XOR2_X1
*CAP
1 *2056:A2 7.88527e-05
2 *2055:Z 7.88527e-05
3 *2056:A2 *1955:A 3.99416e-05
4 *2056:A2 *2056:A1 2.75346e-06
5 *2055:B *2056:A2 7.16188e-07
*RES
1 *2055:Z *2056:A2 19.25 
*END

*D_NET *220 0.000839591
*CONN
*I *2058:B1 I *D OAI21_X1
*I *2056:ZN O *D AND2_X1
*CAP
1 *2058:B1 0.000373199
2 *2056:ZN 0.000373199
3 *2058:B1 *1514:A 2.52965e-06
4 *2058:B1 *1514:B 7.72537e-06
5 *2058:B1 *1519:A 4.9678e-06
6 *2058:B1 *1519:B1 4.04707e-06
7 *2058:B1 *1520:A2 0
8 *2058:B1 *1523:A1 2.2456e-05
9 *2058:B1 *1537:A1 0
10 *2058:B1 *1537:A2 0
11 *2058:B1 *1538:B1 0
12 *2058:B1 *1540:B 0
13 *2058:B1 *1584:A 0
14 *2058:B1 *1584:B 0
15 *2058:B1 *2056:A1 1.28122e-06
16 *2058:B1 *2058:B2 6.0887e-06
17 *2058:B1 *433:14 3.94154e-05
18 *2058:B1 *1235:23 1.92897e-06
19 *2058:A *2058:B1 2.75346e-06
*RES
1 *2056:ZN *2058:B1 49.6786 
*END

*D_NET *221 0.000131612
*CONN
*I *2058:B2 I *D OAI21_X1
*I *2057:ZN O *D OAI21_X1
*CAP
1 *2058:B2 6.27615e-05
2 *2057:ZN 6.27615e-05
3 *2058:B2 *1584:C1 0
4 *2058:B2 *2057:A 0
5 *2058:B2 *499:12 0
6 *2058:B1 *2058:B2 6.0887e-06
*RES
1 *2057:ZN *2058:B2 16.9286 
*END

*D_NET *222 0.000308671
*CONN
*I *2063:A I *D OAI21_X1
*I *2059:ZN O *D NAND2_X1
*CAP
1 *2063:A 7.84934e-05
2 *2059:ZN 7.84934e-05
3 *2063:A *2251:D 1.76461e-05
4 *2063:A *2251:CK 4.29819e-05
5 *2063:A *511:39 9.10563e-05
*RES
1 *2059:ZN *2063:A 31.0357 
*END

*D_NET *223 0.00010394
*CONN
*I *2061:B2 I *D AOI21_X1
*I *2060:ZN O *D OR3_X1
*CAP
1 *2061:B2 3.16317e-05
2 *2060:ZN 3.16317e-05
3 *2061:B2 *2063:B1 6.56185e-06
4 *2061:B1 *2061:B2 3.41146e-05
*RES
1 *2060:ZN *2061:B2 14.1786 
*END

*D_NET *224 0.000230792
*CONN
*I *2063:B1 I *D OAI21_X1
*I *2061:ZN O *D AOI21_X1
*CAP
1 *2063:B1 0.000104462
2 *2061:ZN 0.000104462
3 *2063:B1 *2063:B2 1.21774e-06
4 *2063:B1 *511:39 1.40879e-05
5 *2061:B2 *2063:B1 6.56185e-06
*RES
1 *2061:ZN *2063:B1 20.8571 
*END

*D_NET *225 0.000170909
*CONN
*I *2063:B2 I *D OAI21_X1
*I *2062:ZN O *D OAI21_X1
*CAP
1 *2063:B2 8.48457e-05
2 *2062:ZN 8.48457e-05
3 *2063:B2 *1526:A 0
4 *2063:B2 *511:39 0
5 *2063:B2 *1418:43 0
6 *2063:B1 *2063:B2 1.21774e-06
*RES
1 *2062:ZN *2063:B2 18.75 
*END

*D_NET *226 6.88518e-05
*CONN
*I *2069:A I *D OAI21_X1
*I *2064:ZN O *D NAND2_X1
*CAP
1 *2069:A 3.30492e-05
2 *2064:ZN 3.30492e-05
3 *2069:A *2069:B1 2.75346e-06
4 *182:12 *2069:A 0
*RES
1 *2064:ZN *2069:A 13.25 
*END

*D_NET *227 9.2007e-05
*CONN
*I *2066:A I *D XOR2_X1
*I *2065:ZN O *D NAND2_X1
*CAP
1 *2066:A 4.2759e-05
2 *2065:ZN 4.2759e-05
3 *2016:B2 *2066:A 5.52692e-06
4 *2065:A2 *2066:A 0
5 *182:12 *2066:A 9.62051e-07
*RES
1 *2065:ZN *2066:A 14.7143 
*END

*D_NET *228 0.000208853
*CONN
*I *2067:A2 I *D AND2_X1
*I *2066:Z O *D XOR2_X1
*CAP
1 *2067:A2 0.000102527
2 *2066:Z 0.000102527
3 *2067:A2 *2067:A1 2.75346e-06
4 *2066:B *2067:A2 1.04584e-06
5 *182:12 *2067:A2 0
*RES
1 *2066:Z *2067:A2 20.3571 
*END

*D_NET *229 0.000118409
*CONN
*I *2069:B1 I *D OAI21_X1
*I *2067:ZN O *D AND2_X1
*CAP
1 *2069:B1 5.03176e-05
2 *2067:ZN 5.03176e-05
3 *2069:B1 *2064:A1 0
4 *2069:B1 *2067:A1 1.27691e-05
5 *2069:B1 *2069:B2 2.25089e-06
6 *2069:B1 *2250:D 0
7 *2069:A *2069:B1 2.75346e-06
*RES
1 *2067:ZN *2069:B1 15.6071 
*END

*D_NET *230 0.000320301
*CONN
*I *2069:B2 I *D OAI21_X1
*I *2068:ZN O *D OAI21_X1
*CAP
1 *2069:B2 6.87144e-05
2 *2068:ZN 6.87144e-05
3 *2069:B2 *2067:A1 7.19036e-06
4 *2069:B2 *524:51 0.000171597
5 *2069:B1 *2069:B2 2.25089e-06
6 *182:12 *2069:B2 1.83411e-06
*RES
1 *2068:ZN *2069:B2 30.3214 
*END

*D_NET *231 0.000101841
*CONN
*I *2074:A I *D OAI21_X1
*I *2070:ZN O *D NAND2_X1
*CAP
1 *2074:A 3.6502e-05
2 *2070:ZN 3.6502e-05
3 *2074:A *2074:B2 2.88367e-05
4 *2074:A *1248:10 0
*RES
1 *2070:ZN *2074:A 14.25 
*END

*D_NET *232 5.919e-05
*CONN
*I *2072:B2 I *D AOI21_X1
*I *2071:ZN O *D OR3_X1
*CAP
1 *2072:B2 1.20944e-05
2 *2071:ZN 1.20944e-05
3 *2072:B2 *2074:B1 1.72191e-05
4 *2071:A1 *2072:B2 1.77822e-05
*RES
1 *2071:ZN *2072:B2 22.2857 
*END

*D_NET *233 0.000406864
*CONN
*I *2074:B1 I *D OAI21_X1
*I *2072:ZN O *D AOI21_X1
*CAP
1 *2074:B1 0.000189254
2 *2072:ZN 0.000189254
3 *2074:B1 *2070:A1 0
4 *2071:A1 *2074:B1 1.11357e-05
5 *2072:B2 *2074:B1 1.72191e-05
*RES
1 *2072:ZN *2074:B1 41.4286 
*END

*D_NET *234 0.000303442
*CONN
*I *2074:B2 I *D OAI21_X1
*I *2073:ZN O *D OAI21_X1
*CAP
1 *2074:B2 0.000100824
2 *2073:ZN 0.000100824
3 *2074:B2 *2073:A 3.65322e-06
4 *2074:B2 *766:28 2.87844e-05
5 *2070:A2 *2074:B2 4.05194e-05
6 *2074:A *2074:B2 2.88367e-05
*RES
1 *2073:ZN *2074:B2 24.2857 
*END

*D_NET *235 0.000156532
*CONN
*I *2080:A I *D OAI21_X1
*I *2075:ZN O *D NAND2_X1
*CAP
1 *2080:A 5.25978e-05
2 *2075:ZN 5.25978e-05
3 *2080:A *2080:B2 8.43215e-07
4 *2080:A *530:60 3.77534e-05
5 *95:22 *2080:A 1.27403e-05
*RES
1 *2075:ZN *2080:A 16.2857 
*END

*D_NET *236 0.000190263
*CONN
*I *2077:B I *D XOR2_X1
*I *2076:ZN O *D NAND2_X1
*CAP
1 *2077:B 6.96123e-05
2 *2076:ZN 6.96123e-05
3 *2014:A *2077:B 2.07643e-05
4 *2014:B1 *2077:B 5.22944e-06
5 *2076:A2 *2077:B 1.1025e-05
6 *144:8 *2077:B 0
7 *181:6 *2077:B 1.40196e-05
*RES
1 *2076:ZN *2077:B 18.6786 
*END

*D_NET *237 0.000302101
*CONN
*I *2078:A2 I *D AND2_X1
*I *2077:Z O *D XOR2_X1
*CAP
1 *2078:A2 0.000120563
2 *2077:Z 0.000120563
3 *2078:A2 *511:56 4.38852e-05
4 *2078:A2 *524:106 6.81033e-07
5 *2078:A2 *524:112 3.13512e-06
6 *144:8 *2078:A2 1.32732e-05
7 *147:8 *2078:A2 0
8 *181:6 *2078:A2 0
*RES
1 *2077:Z *2078:A2 34 
*END

*D_NET *238 8.88144e-05
*CONN
*I *2080:B1 I *D OAI21_X1
*I *2078:ZN O *D AND2_X1
*CAP
1 *2080:B1 4.16829e-05
2 *2078:ZN 4.16829e-05
3 *2080:B1 *2248:D 1.11168e-06
4 *2080:B1 *524:106 4.33701e-06
*RES
1 *2078:ZN *2080:B1 24.3214 
*END

*D_NET *239 0.000111655
*CONN
*I *2080:B2 I *D OAI21_X1
*I *2079:ZN O *D OAI21_X1
*CAP
1 *2080:B2 3.96951e-05
2 *2079:ZN 3.96951e-05
3 *2080:B2 *2079:B1 7.19036e-06
4 *2080:B2 *530:60 9.64572e-06
5 *2080:A *2080:B2 8.43215e-07
6 *95:22 *2080:B2 1.45851e-05
*RES
1 *2079:ZN *2080:B2 14.6786 
*END

*D_NET *240 0.0002203
*CONN
*I *2085:A I *D OAI21_X1
*I *2081:ZN O *D NAND2_X1
*CAP
1 *2085:A 8.0852e-05
2 *2081:ZN 8.0852e-05
3 *2085:A *2085:B1 1.19839e-05
4 *2085:A *530:31 0
5 *95:22 *2085:A 4.66123e-05
*RES
1 *2081:ZN *2085:A 19.8571 
*END

*D_NET *241 4.28951e-05
*CONN
*I *2083:B2 I *D AOI21_X1
*I *2082:ZN O *D OR3_X1
*CAP
1 *2083:B2 2.14476e-05
2 *2082:ZN 2.14476e-05
3 *2076:A1 *2083:B2 0
4 *2082:A3 *2083:B2 0
5 *177:10 *2083:B2 0
*RES
1 *2082:ZN *2083:B2 12.2857 
*END

*D_NET *242 0.000372943
*CONN
*I *2085:B1 I *D OAI21_X1
*I *2083:ZN O *D AOI21_X1
*CAP
1 *2085:B1 9.00799e-05
2 *2083:ZN 9.00799e-05
3 *2085:B1 *2084:A 0
4 *2085:B1 *2084:B2 0.000107413
5 *2085:B1 *2085:B2 1.21774e-06
6 *2085:B1 *511:69 3.48838e-06
7 *2085:B1 *530:46 6.86795e-05
8 *2085:A *2085:B1 1.19839e-05
*RES
1 *2083:ZN *2085:B1 32.3571 
*END

*D_NET *243 8.00071e-05
*CONN
*I *2085:B2 I *D OAI21_X1
*I *2084:ZN O *D OAI21_X1
*CAP
1 *2085:B2 3.81533e-05
2 *2084:ZN 3.81533e-05
3 *2085:B2 *2084:A 7.16188e-07
4 *2085:B2 *2084:B1 1.76665e-06
5 *2085:B2 *524:112 0
6 *2085:B1 *2085:B2 1.21774e-06
7 *95:22 *2085:B2 0
*RES
1 *2084:ZN *2085:B2 14.2143 
*END

*D_NET *244 0.00027017
*CONN
*I *2091:A I *D OAI21_X1
*I *2086:ZN O *D NAND2_X1
*CAP
1 *2091:A 0.00010811
2 *2086:ZN 0.00010811
3 *2091:A *2090:B1 2.17662e-05
4 *2091:A *2090:B2 8.57214e-06
5 *2091:A *2091:B1 2.10544e-05
6 *2091:A *524:135 2.55787e-06
*RES
1 *2086:ZN *2091:A 32.3929 
*END

*D_NET *245 7.31232e-05
*CONN
*I *2088:B I *D XOR2_X1
*I *2087:ZN O *D NAND2_X1
*CAP
1 *2088:B 2.74961e-05
2 *2087:ZN 2.74961e-05
3 *2086:A2 *2088:B 1.11357e-05
4 *2087:A2 *2088:B 6.99525e-06
*RES
1 *2087:ZN *2088:B 23.6429 
*END

*D_NET *246 0.000348445
*CONN
*I *2089:A2 I *D AND2_X1
*I *2088:Z O *D XOR2_X1
*CAP
1 *2089:A2 7.39261e-05
2 *2088:Z 7.39261e-05
3 *2089:A2 *2162:A2 1.08036e-06
4 *2089:A2 *524:135 2.39679e-06
5 *2089:A2 *524:144 1.25215e-05
6 *2086:A2 *2089:A2 0.000184594
*RES
1 *2088:Z *2089:A2 31 
*END

*D_NET *247 0.000206968
*CONN
*I *2091:B1 I *D OAI21_X1
*I *2089:ZN O *D AND2_X1
*CAP
1 *2091:B1 7.83526e-05
2 *2089:ZN 7.83526e-05
3 *2091:B1 *2086:A1 2.36789e-05
4 *2091:B1 *2090:B2 0
5 *2091:B1 *2091:B2 5.52959e-06
6 *2091:B1 *524:135 0
7 *2091:A *2091:B1 2.10544e-05
*RES
1 *2089:ZN *2091:B1 29.4286 
*END

*D_NET *248 9.4652e-05
*CONN
*I *2091:B2 I *D OAI21_X1
*I *2090:ZN O *D OAI21_X1
*CAP
1 *2091:B2 4.45612e-05
2 *2090:ZN 4.45612e-05
3 *2091:B2 *2090:B2 0
4 *2091:B1 *2091:B2 5.52959e-06
*RES
1 *2090:ZN *2091:B2 14.8929 
*END

*D_NET *249 0.000452566
*CONN
*I *2096:A I *D OAI21_X1
*I *2092:ZN O *D NAND2_X1
*CAP
1 *2096:A 0.000130107
2 *2092:ZN 0.000130107
3 *2096:A *2096:B1 2.39679e-06
4 *2096:A *2096:B2 1.43238e-06
5 *2096:A *2244:CK 9.90224e-06
6 *2096:A *2245:D 8.21816e-05
7 *2096:A *2245:CK 9.64396e-05
8 *61:48 *2096:A 0
*RES
1 *2092:ZN *2096:A 39.3214 
*END

*D_NET *250 0.000371297
*CONN
*I *2094:B2 I *D AOI21_X1
*I *2093:ZN O *D OR3_X1
*CAP
1 *2094:B2 0.000123424
2 *2093:ZN 0.000123424
3 *2094:B2 *2094:A 2.39679e-06
4 *2094:B2 *2096:B1 7.16188e-07
5 *2004:B1 *2094:B2 9.57492e-07
6 *2004:B2 *2094:B2 1.10138e-05
7 *2093:A1 *2094:B2 3.35822e-05
8 *2093:A2 *2094:B2 1.68643e-06
9 *2093:A3 *2094:B2 4.95679e-05
10 *2094:B1 *2094:B2 2.45282e-05
*RES
1 *2093:ZN *2094:B2 35.1429 
*END

*D_NET *251 0.000578199
*CONN
*I *2096:B1 I *D OAI21_X1
*I *2094:ZN O *D AOI21_X1
*CAP
1 *2096:B1 0.000216097
2 *2094:ZN 0.000216097
3 *2096:B1 *2096:B2 1.21774e-06
4 *2096:B1 *524:287 2.38278e-05
5 *2096:B1 *530:155 0
6 *2093:A1 *2096:B1 8.33759e-07
7 *2093:A2 *2096:B1 2.84174e-05
8 *2093:A3 *2096:B1 2.3767e-06
9 *2094:B1 *2096:B1 3.65501e-05
10 *2094:B2 *2096:B1 7.16188e-07
11 *2096:A *2096:B1 2.39679e-06
12 *159:8 *2096:B1 3.01743e-06
13 *171:12 *2096:B1 4.66503e-05
*RES
1 *2094:ZN *2096:B1 45.8572 
*END

*D_NET *252 7.94313e-05
*CONN
*I *2096:B2 I *D OAI21_X1
*I *2095:ZN O *D OAI21_X1
*CAP
1 *2096:B2 3.80325e-05
2 *2095:ZN 3.80325e-05
3 *2096:B2 *530:155 7.16188e-07
4 *2096:A *2096:B2 1.43238e-06
5 *2096:B1 *2096:B2 1.21774e-06
*RES
1 *2095:ZN *2096:B2 14.2143 
*END

*D_NET *253 0.000111312
*CONN
*I *2102:A I *D OAI21_X1
*I *2097:ZN O *D NAND2_X1
*CAP
1 *2102:A 5.37201e-05
2 *2097:ZN 5.37201e-05
3 *2102:A *2102:B1 2.75346e-06
4 *2102:A *2102:B2 1.11792e-06
5 *95:280 *2102:A 0
*RES
1 *2097:ZN *2102:A 15.3571 
*END

*D_NET *254 0.000154743
*CONN
*I *2099:A I *D XOR2_X1
*I *2098:ZN O *D NAND2_X1
*CAP
1 *2099:A 6.63532e-05
2 *2098:ZN 6.63532e-05
3 *2099:A *1998:A1 2.20371e-05
4 *2099:A *511:134 0
5 *2003:B1 *2099:A 0
6 *169:8 *2099:A 0
*RES
1 *2098:ZN *2099:A 26.8929 
*END

*D_NET *255 0.000180669
*CONN
*I *2100:A2 I *D AND2_X1
*I *2099:Z O *D XOR2_X1
*CAP
1 *2100:A2 9.03344e-05
2 *2099:Z 9.03344e-05
3 *95:251 *2100:A2 0
4 *95:280 *2100:A2 0
*RES
1 *2099:Z *2100:A2 18.75 
*END

*D_NET *256 0.000125795
*CONN
*I *2102:B1 I *D OAI21_X1
*I *2100:ZN O *D AND2_X1
*CAP
1 *2102:B1 6.09121e-05
2 *2100:ZN 6.09121e-05
3 *2102:B1 *2102:B2 1.21774e-06
4 *2102:A *2102:B1 2.75346e-06
5 *95:280 *2102:B1 0
*RES
1 *2100:ZN *2102:B1 16.2143 
*END

*D_NET *257 0.0002107
*CONN
*I *2102:B2 I *D OAI21_X1
*I *2101:ZN O *D OAI21_X1
*CAP
1 *2102:B2 5.00053e-05
2 *2101:ZN 5.00053e-05
3 *2102:B2 *2244:D 0.000106519
4 *2102:B2 *494:12 0
5 *2102:B2 *494:18 0
6 *2102:A *2102:B2 1.11792e-06
7 *2102:B1 *2102:B2 1.21774e-06
8 *95:280 *2102:B2 1.83411e-06
*RES
1 *2101:ZN *2102:B2 26.9286 
*END

*D_NET *258 8.94421e-05
*CONN
*I *2106:A I *D OAI21_X1
*I *2103:ZN O *D NAND2_X1
*CAP
1 *2106:A 2.14884e-05
2 *2103:ZN 2.14884e-05
3 *2106:A *2103:A1 3.35796e-05
4 *2106:A *2106:B1 2.39679e-06
5 *2106:A *2106:B2 1.90208e-06
6 *95:240 *2106:A 8.58686e-06
*RES
1 *2103:ZN *2106:A 13.25 
*END

*D_NET *259 9.87529e-05
*CONN
*I *2106:B1 I *D OAI21_X1
*I *2104:ZN O *D NOR2_X1
*CAP
1 *2106:B1 4.64438e-05
2 *2104:ZN 4.64438e-05
3 *2106:B1 *2103:A1 2.25089e-06
4 *2106:B1 *2106:B2 1.21774e-06
5 *2003:B2 *2106:B1 0
6 *2106:A *2106:B1 2.39679e-06
*RES
1 *2104:ZN *2106:B1 14.75 
*END

*D_NET *260 0.000303782
*CONN
*I *2106:B2 I *D OAI21_X1
*I *2105:ZN O *D OAI21_X1
*CAP
1 *2106:B2 8.67774e-05
2 *2105:ZN 8.67774e-05
3 *2106:B2 *1993:B 6.81795e-05
4 *2106:B2 *530:196 0
5 *2106:B2 *530:206 5.28042e-06
6 *2106:A *2106:B2 1.90208e-06
7 *2106:B1 *2106:B2 1.21774e-06
8 *95:240 *2106:B2 5.36473e-05
*RES
1 *2105:ZN *2106:B2 32.1429 
*END

*D_NET *261 8.13649e-05
*CONN
*I *2110:A I *D OAI21_X1
*I *2107:ZN O *D NAND2_X1
*CAP
1 *2110:A 3.92823e-05
2 *2107:ZN 3.92823e-05
3 *2110:A *2110:B2 2.08416e-06
4 *2107:A2 *2110:A 7.16188e-07
5 *50:14 *2110:A 0
*RES
1 *2107:ZN *2110:A 14.2143 
*END

*D_NET *262 9.65097e-05
*CONN
*I *2110:B1 I *D OAI21_X1
*I *2108:ZN O *D NOR2_X1
*CAP
1 *2110:B1 3.36647e-05
2 *2108:ZN 3.36647e-05
3 *2110:B1 *2110:B2 2.06764e-05
4 *2110:B1 *2242:D 6.99525e-06
5 *2110:B1 *1421:84 1.50873e-06
6 *2107:A2 *2110:B1 0
*RES
1 *2108:ZN *2110:B1 24.3214 
*END

*D_NET *263 0.00019978
*CONN
*I *2110:B2 I *D OAI21_X1
*I *2109:ZN O *D OAI21_X1
*CAP
1 *2110:B2 5.83669e-05
2 *2109:ZN 5.83669e-05
3 *2110:B2 *2108:A1 2.08416e-06
4 *2110:B2 *2109:A 4.12911e-06
5 *2110:B2 *1421:84 2.72417e-06
6 *2110:A *2110:B2 2.08416e-06
7 *2110:B1 *2110:B2 2.06764e-05
8 *53:27 *2110:B2 5.13479e-05
*RES
1 *2109:ZN *2110:B2 28.9643 
*END

*D_NET *264 0.000131374
*CONN
*I *2114:A I *D OAI21_X1
*I *2111:ZN O *D NAND2_X1
*CAP
1 *2114:A 2.60825e-05
2 *2111:ZN 2.60825e-05
3 *2114:A *2114:B1 1.30565e-05
4 *2114:A *2241:D 5.54369e-05
5 *61:256 *2114:A 0
6 *95:230 *2114:A 9.99932e-06
7 *95:240 *2114:A 7.16188e-07
*RES
1 *2111:ZN *2114:A 24.2143 
*END

*D_NET *265 0.000195566
*CONN
*I *2114:B1 I *D OAI21_X1
*I *2112:ZN O *D NOR2_X1
*CAP
1 *2114:B1 8.98184e-05
2 *2112:ZN 8.98184e-05
3 *2114:B1 *530:186 0
4 *2114:A *2114:B1 1.30565e-05
5 *95:230 *2114:B1 2.87248e-06
*RES
1 *2112:ZN *2114:B1 18.75 
*END

*D_NET *266 0.000175241
*CONN
*I *2114:B2 I *D OAI21_X1
*I *2113:ZN O *D OAI21_X1
*CAP
1 *2114:B2 3.16433e-05
2 *2113:ZN 3.16433e-05
3 *2114:B2 *2113:B1 9.44188e-05
4 *95:230 *2114:B2 1.75354e-05
*RES
1 *2113:ZN *2114:B2 25.6786 
*END

*D_NET *267 9.84041e-05
*CONN
*I *2132:A1 I *D NAND2_X1
*I *2130:ZN O *D OAI21_X1
*CAP
1 *2132:A1 2.08578e-05
2 *2130:ZN 2.08578e-05
3 *2132:A1 *2132:A2 5.59765e-05
4 *2132:A1 *1271:10 7.11905e-07
*RES
1 *2130:ZN *2132:A1 22.9643 
*END

*D_NET *268 0.00101926
*CONN
*I *2132:A2 I *D NAND2_X1
*I *2131:ZN O *D AOI22_X1
*CAP
1 *2132:A2 0.000138203
2 *2131:ZN 0.000138203
3 *2132:A2 *1881:S 6.86795e-05
4 *2132:A2 *2130:A 0.000325952
5 *2132:A2 *2130:B2 0
6 *2132:A2 *2131:B1 7.1675e-06
7 *2132:A2 *2131:B2 0
8 *2132:A2 *287:25 2.67641e-05
9 *2132:A2 *529:18 0.000258314
10 *2132:A2 *763:12 0
11 *2132:A2 *1271:10 0
12 *2132:A2 *1420:62 0
13 *2132:A1 *2132:A2 5.59765e-05
*RES
1 *2131:ZN *2132:A2 47.8929 
*END

*D_NET *269 0.000263504
*CONN
*I *2146:A I *D OAI21_X1
*I *2133:ZN O *D NAND2_X1
*CAP
1 *2146:A 7.87884e-05
2 *2133:ZN 7.87884e-05
3 *2146:A *2133:A1 1.26998e-05
4 *2146:A *2146:B1 1.50966e-05
5 *2146:A *2256:D 4.92138e-05
6 *61:153 *2146:A 2.89166e-05
*RES
1 *2133:ZN *2146:A 21.5357 
*END

*D_NET *270 0.000146331
*CONN
*I *2146:B1 I *D OAI21_X1
*I *2134:ZN O *D OAI21_X1
*CAP
1 *2146:B1 6.03924e-05
2 *2134:ZN 6.03924e-05
3 *2146:B1 *1557:B 0
4 *2146:B1 *2146:B2 1.045e-05
5 *2146:A *2146:B1 1.50966e-05
*RES
1 *2134:ZN *2146:B1 25.5714 
*END

*D_NET *271 0.000699895
*CONN
*I *2144:A1 I *D NAND3_X1
*I *2142:A1 I *D AND4_X2
*I *2135:ZN O *D NAND2_X1
*CAP
1 *2144:A1 1.10021e-05
2 *2142:A1 6.85213e-05
3 *2135:ZN 8.563e-05
4 *271:8 0.000165153
5 *2142:A1 *2142:A2 1.99237e-05
6 *2142:A1 *511:117 2.95752e-05
7 *2142:A1 *1240:12 4.26902e-05
8 *2144:A1 *2142:A2 2.39679e-06
9 *271:8 *1240:12 0.00026177
10 *2032:B *271:8 0
11 *2144:A3 *2142:A1 1.32323e-05
12 *199:12 *271:8 0
*RES
1 *2135:ZN *271:8 23.8214 
2 *271:8 *2142:A1 19.9643 
3 *271:8 *2144:A1 11.25 
*END

*D_NET *272 0.000588068
*CONN
*I *2142:A2 I *D AND4_X2
*I *2144:A2 I *D NAND3_X1
*I *2136:ZN O *D NAND2_X1
*CAP
1 *2142:A2 3.42954e-05
2 *2144:A2 0
3 *2136:ZN 0.000129605
4 *272:12 0.0001639
5 *272:12 *1240:12 0.000146397
6 *2032:A *272:12 0
7 *2135:A2 *272:12 0
8 *2142:A1 *2142:A2 1.99237e-05
9 *2142:A3 *2142:A2 5.01029e-05
10 *2142:A3 *272:12 5.64879e-06
11 *2144:A1 *2142:A2 2.39679e-06
12 *2144:A3 *2142:A2 1.32323e-05
13 *199:12 *272:12 2.25658e-05
*RES
1 *2136:ZN *272:12 30.9643 
2 *272:12 *2144:A2 5 
3 *272:12 *2142:A2 10.75 
*END

*D_NET *273 0.000243388
*CONN
*I *2139:A I *D XNOR2_X1
*I *2137:Z O *D XOR2_X1
*CAP
1 *2139:A 9.98082e-05
2 *2137:Z 9.98082e-05
3 *2139:A *2139:B 0
4 *2139:A *2141:A 4.37715e-05
*RES
1 *2137:Z *2139:A 31.1071 
*END

*D_NET *274 8.82241e-05
*CONN
*I *2139:B I *D XNOR2_X1
*I *2138:Z O *D MUX2_X1
*CAP
1 *2139:B 4.4112e-05
2 *2138:Z 4.4112e-05
3 *2139:A *2139:B 0
*RES
1 *2138:Z *2139:B 14.3571 
*END

*D_NET *275 0.000350204
*CONN
*I *2141:A I *D XNOR2_X1
*I *2139:ZN O *D XNOR2_X1
*CAP
1 *2141:A 0.000143054
2 *2139:ZN 0.000143054
3 *2141:A *2141:B 7.72537e-06
4 *2141:A *277:10 1.045e-05
5 *2139:A *2141:A 4.37715e-05
6 *99:164 *2141:A 2.14856e-06
*RES
1 *2139:ZN *2141:A 37.2857 
*END

*D_NET *276 0.0002322
*CONN
*I *2141:B I *D XNOR2_X1
*I *2140:Z O *D MUX2_X1
*CAP
1 *2141:B 9.79542e-05
2 *2140:Z 9.79542e-05
3 *2141:B *277:10 1.32323e-05
4 *2141:A *2141:B 7.72537e-06
5 *99:164 *2141:B 1.53335e-05
*RES
1 *2140:Z *2141:B 20.8571 
*END

*D_NET *277 0.000503606
*CONN
*I *2143:A I *D INV_X1
*I *2142:A4 I *D AND4_X2
*I *2141:ZN O *D XNOR2_X1
*CAP
1 *2143:A 4.29156e-05
2 *2142:A4 2.25693e-05
3 *2141:ZN 0.000162578
4 *277:10 0.000228063
5 *2142:A4 *2145:B 6.21255e-06
6 *2142:A4 *2145:C1 0
7 *2143:A *2145:B 0
8 *2143:A *2145:C2 1.75851e-05
9 *277:10 *2145:C1 0
10 *2141:A *277:10 1.045e-05
11 *2141:B *277:10 1.32323e-05
12 *99:164 *277:10 0
*RES
1 *2141:ZN *277:10 27.6071 
2 *277:10 *2142:A4 12.2857 
3 *277:10 *2143:A 14.75 
*END

*D_NET *278 0.000199919
*CONN
*I *2145:B I *D AOI211_X2
*I *2142:ZN O *D AND4_X2
*CAP
1 *2145:B 7.41346e-05
2 *2142:ZN 7.41346e-05
3 *2145:B *2133:A1 0
4 *2145:B *2145:C1 3.06181e-06
5 *2145:B *2145:C2 0
6 *2145:B *511:117 3.41146e-05
7 *2145:B *511:130 8.26038e-06
8 *2142:A4 *2145:B 6.21255e-06
9 *2143:A *2145:B 0
*RES
1 *2142:ZN *2145:B 28.75 
*END

*D_NET *279 9.81572e-05
*CONN
*I *2145:C1 I *D AOI211_X2
*I *2143:ZN O *D INV_X1
*CAP
1 *2145:C1 3.63822e-05
2 *2143:ZN 3.63822e-05
3 *2145:C1 *2133:A1 2.2331e-05
4 *2142:A4 *2145:C1 0
5 *2145:B *2145:C1 3.06181e-06
6 *277:10 *2145:C1 0
*RES
1 *2143:ZN *2145:C1 24.3214 
*END

*D_NET *280 0.000203435
*CONN
*I *2145:C2 I *D AOI211_X2
*I *2144:ZN O *D NAND3_X1
*CAP
1 *2145:C2 8.46976e-05
2 *2144:ZN 8.46976e-05
3 *2145:C2 *511:117 0
4 *2142:A3 *2145:C2 1.64551e-05
5 *2143:A *2145:C2 1.75851e-05
6 *2145:B *2145:C2 0
*RES
1 *2144:ZN *2145:C2 19.6071 
*END

*D_NET *281 0.000408065
*CONN
*I *2146:B2 I *D OAI21_X1
*I *2145:ZN O *D AOI211_X2
*CAP
1 *2146:B2 0.000174703
2 *2145:ZN 0.000174703
3 *2146:B2 *2029:A 0
4 *2146:B2 *2030:A 0
5 *2146:B2 *2133:A1 0
6 *2146:B2 *511:117 1.37673e-05
7 *2146:B2 *511:130 3.2921e-05
8 *2029:S *2146:B2 1.52083e-06
9 *2146:B1 *2146:B2 1.045e-05
*RES
1 *2145:ZN *2146:B2 39.8929 
*END

*D_NET *282 0.000205974
*CONN
*I *2164:A1 I *D OAI22_X1
*I *2161:ZN O *D INV_X1
*CAP
1 *2164:A1 7.20414e-05
2 *2161:ZN 7.20414e-05
3 *2164:A1 *2163:A 2.25683e-05
4 *2164:A1 *2163:B1 4.12911e-06
5 *2164:A1 *2163:B2 5.31873e-06
6 *2164:A1 *2164:A2 1.59858e-05
7 *2164:A1 *2164:B1 0
8 *2164:A1 *2164:B2 1.38898e-05
*RES
1 *2161:ZN *2164:A1 28.0714 
*END

*D_NET *283 0.00050638
*CONN
*I *2164:B1 I *D OAI22_X1
*I *2162:ZN O *D NOR2_X1
*CAP
1 *2164:B1 0.000154988
2 *2162:ZN 0.000154988
3 *2164:B1 *2163:B1 0
4 *2164:B1 *520:14 0.000185381
5 *2164:B1 *524:159 1.10223e-05
6 *2164:A1 *2164:B1 0
*RES
1 *2162:ZN *2164:B1 39.0714 
*END

*D_NET *284 0.000148822
*CONN
*I *2164:B2 I *D OAI22_X1
*I *2163:ZN O *D OAI21_X1
*CAP
1 *2164:B2 4.57734e-05
2 *2163:ZN 4.57734e-05
3 *2164:B2 *2157:A 0
4 *2164:B2 *2161:A 1.91498e-06
5 *2164:B2 *2163:A 4.04707e-06
6 *2164:B2 *2163:B2 3.74237e-05
7 *2164:A1 *2164:B2 1.38898e-05
*RES
1 *2163:ZN *2164:B2 16.4286 
*END

*D_NET *285 0.0002396
*CONN
*I *2171:A1 I *D NOR2_X1
*I *1845:A1 I *D NOR3_X1
*I *2169:Z O *D XOR2_X1
*CAP
1 *2171:A1 0
2 *1845:A1 2.55182e-05
3 *2169:Z 4.72927e-05
4 *285:8 7.28108e-05
5 *1845:A1 *2170:B 0
6 *1845:A1 *2171:A2 5.62244e-05
7 *1845:A1 *1420:14 1.76415e-05
8 *285:8 *2171:A2 2.52965e-06
9 *285:8 *286:12 0
10 *285:8 *530:6 1.75824e-05
11 *285:8 *759:10 0
*RES
1 *2169:Z *285:8 10.1786 
2 *285:8 *1845:A1 19.3214 
3 *285:8 *2171:A1 5 
*END

*D_NET *286 0.000463429
*CONN
*I *1845:A2 I *D NOR3_X1
*I *2171:A2 I *D NOR2_X1
*I *2170:Z O *D XOR2_X1
*CAP
1 *1845:A2 5.00995e-06
2 *2171:A2 2.82314e-05
3 *2170:Z 8.49447e-05
4 *286:12 0.000118186
5 *1845:A2 *529:16 1.87369e-06
6 *2171:A2 *2170:B 3.89008e-06
7 *2171:A2 *1420:14 1.78436e-06
8 *286:12 *2170:B 0.000145608
9 *286:12 *529:16 1.51469e-05
10 *1845:A1 *2171:A2 5.62244e-05
11 *285:8 *2171:A2 2.52965e-06
12 *285:8 *286:12 0
*RES
1 *2170:Z *286:12 26.4643 
2 *286:12 *2171:A2 19.3929 
3 *286:12 *1845:A2 5.75 
*END

*D_NET *287 0.00262902
*CONN
*I *2131:A2 I *D AOI22_X1
*I *1834:B I *D XNOR2_X1
*I *2172:B I *D XOR2_X1
*I *1844:B2 I *D OAI21_X1
*I *1923:A2 I *D NAND2_X1
*I *1838:A2 I *D NAND2_X1
*I *1611:A1 I *D OR3_X1
*I *2171:ZN O *D NOR2_X1
*CAP
1 *2131:A2 1.44708e-05
2 *1834:B 0
3 *2172:B 0
4 *1844:B2 1.94483e-05
5 *1923:A2 0.000100089
6 *1838:A2 8.81644e-06
7 *1611:A1 0
8 *2171:ZN 8.76999e-05
9 *287:65 0.000102605
10 *287:48 0.000316557
11 *287:44 0.000332461
12 *287:29 0.000288157
13 *287:25 0.000158285
14 *287:10 0.000151323
15 *1838:A2 *1838:A1 8.43215e-07
16 *1844:B2 *1923:A1 0
17 *1844:B2 *1421:69 2.06764e-05
18 *1923:A2 *1593:B2 4.04964e-06
19 *1923:A2 *1834:A 7.09666e-06
20 *1923:A2 *1923:A1 3.09143e-06
21 *1923:A2 *1102:89 1.26943e-05
22 *1923:A2 *1421:10 6.50033e-06
23 *1923:A2 *1421:14 6.38784e-06
24 *2131:A2 *2131:A1 0
25 *2131:A2 *2131:B1 1.27666e-06
26 *287:10 *1611:A2 7.72537e-06
27 *287:10 *1611:A3 4.37004e-05
28 *287:10 *530:6 5.22944e-06
29 *287:10 *763:12 4.79202e-06
30 *287:25 *1611:A2 2.39679e-06
31 *287:25 *2130:A 4.80515e-06
32 *287:25 *2131:B1 1.72529e-05
33 *287:25 *763:12 2.23871e-06
34 *287:29 *1880:B 0
35 *287:29 *1922:B2 0.000146397
36 *287:29 *2131:B1 5.86754e-06
37 *287:29 *530:169 1.07743e-05
38 *287:44 *1834:A 4.97191e-06
39 *287:44 *1836:A4 0
40 *287:44 *1838:A1 0
41 *287:44 *1922:B2 0.000185383
42 *287:44 *530:169 1.84537e-05
43 *287:48 *1834:A 0.000126001
44 *287:48 *1836:A4 0
45 *287:48 *2905:A 2.08416e-06
46 *287:48 *1421:14 3.80155e-06
47 *287:65 *1593:A 1.25215e-05
48 *287:65 *1593:B2 1.1836e-05
49 *287:65 *1836:A4 0
50 *287:65 *1421:10 1.74688e-05
51 *287:65 *1421:69 0.000133403
52 *1924:A *287:44 0.000159392
53 *1924:B1 *1923:A2 5.52692e-06
54 *1925:C1 *1923:A2 9.92472e-06
55 *2132:A2 *287:25 2.67641e-05
56 *95:135 *287:65 0
57 *95:151 *1844:B2 1.77822e-05
*RES
1 *2171:ZN *287:10 15.4286 
2 *287:10 *1611:A1 5 
3 *287:10 *287:25 17.7857 
4 *287:25 *287:29 16.7857 
5 *287:29 *1838:A2 10.75 
6 *287:29 *287:44 32.4643 
7 *287:44 *287:48 21.25 
8 *287:48 *1923:A2 22.25 
9 *287:48 *287:65 17.8571 
10 *287:65 *1844:B2 17.9643 
11 *287:65 *2172:B 5 
12 *287:44 *1834:B 5 
13 *287:25 *2131:A2 6.67857 
*END

*D_NET *288 0.000169197
*CONN
*I *1593:A I *D AOI21_X1
*I *2172:Z O *D XOR2_X1
*CAP
1 *1593:A 5.87587e-05
2 *2172:Z 5.87587e-05
3 *1593:A *1593:B1 3.13138e-05
4 *1593:A *1593:B2 1.88334e-06
5 *1593:A *1836:A1 0
6 *1593:A *1836:A4 0
7 *1593:A *1844:A 0
8 *1593:A *1421:69 5.96136e-06
9 *95:135 *1593:A 0
10 *287:65 *1593:A 1.25215e-05
*RES
1 *2172:Z *1593:A 26.7857 
*END

*D_NET *289 0.00063424
*CONN
*I *2174:B I *D XNOR2_X1
*I *2223:C1 I *D OAI221_X1
*I *2173:ZN O *D XNOR2_X1
*CAP
1 *2174:B 0
2 *2223:C1 6.88191e-05
3 *2173:ZN 0.00012035
4 *289:10 0.000189169
5 *2223:C1 *2174:A 0
6 *2223:C1 *2218:A1 3.60147e-05
7 *2223:C1 *2218:A2 0
8 *2223:C1 *290:8 9.49605e-05
9 *2223:C1 *340:10 4.4061e-05
10 *289:10 *2173:A 2.24822e-06
11 *289:10 *2173:B 2.39679e-06
12 *289:10 *2218:A1 6.32263e-05
13 *289:10 *290:8 1.29947e-05
*RES
1 *2173:ZN *289:10 25.25 
2 *289:10 *2223:C1 20.75 
3 *289:10 *2174:B 10 
*END

*D_NET *290 0.000393928
*CONN
*I *2218:A2 I *D NAND2_X1
*I *2175:B I *D XNOR2_X1
*I *2174:ZN O *D XNOR2_X1
*CAP
1 *2218:A2 1.45748e-05
2 *2175:B 3.70555e-05
3 *2174:ZN 6.79377e-05
4 *290:8 0.000119568
5 *2175:B *2175:A 0
6 *2175:B *2188:B 4.80399e-06
7 *2175:B *340:12 1.79373e-05
8 *290:8 *2188:B 3.61155e-06
9 *290:8 *2218:A1 1.50871e-05
10 *290:8 *340:12 5.39659e-06
11 *2223:C1 *2218:A2 0
12 *2223:C1 *290:8 9.49605e-05
13 *289:10 *290:8 1.29947e-05
*RES
1 *2174:ZN *290:8 20.4286 
2 *290:8 *2175:B 15.0714 
3 *290:8 *2218:A2 11.75 
*END

*D_NET *291 0.000635132
*CONN
*I *2187:A I *D AOI211_X2
*I *2223:B1 I *D OAI221_X1
*I *2175:ZN O *D XNOR2_X1
*CAP
1 *2187:A 0.000136036
2 *2223:B1 2.9765e-05
3 *2175:ZN 3.94832e-05
4 *291:6 0.000205284
5 *2187:A *2186:A 0
6 *2187:A *2187:C2 0.000121198
7 *2187:A *2222:A 0
8 *2187:A *2223:B2 8.94571e-06
9 *2187:A *303:16 0
10 *2223:B1 *2222:A 9.44209e-05
11 *2223:B1 *340:12 0
12 *291:6 *2223:A 0
13 *291:6 *340:10 0
*RES
1 *2175:ZN *291:6 8.75 
2 *291:6 *2223:B1 20 
3 *291:6 *2187:A 31.1786 
*END

*D_NET *292 0.00045226
*CONN
*I *2214:A2 I *D AND2_X1
*I *2177:B I *D XOR2_X2
*I *2176:Z O *D XOR2_X1
*CAP
1 *2214:A2 0
2 *2177:B 4.94416e-05
3 *2176:Z 0.000166954
4 *292:14 0.000216395
5 *2177:B *2177:A 8.43215e-07
6 *2177:B *2214:A1 2.39679e-06
7 *292:14 *2214:A1 4.79358e-06
8 *292:14 *2215:B1 1.14365e-05
*RES
1 *2176:Z *292:14 31.7857 
2 *292:14 *2177:B 9.75 
3 *292:14 *2214:A2 5 
*END

*D_NET *293 0.000473848
*CONN
*I *2178:A2 I *D AND2_X1
*I *2182:B1 I *D OAI21_X2
*I *2177:Z O *D XOR2_X2
*CAP
1 *2178:A2 0
2 *2182:B1 1.57793e-05
3 *2177:Z 5.95781e-05
4 *293:8 7.53574e-05
5 *2182:B1 *2178:A1 6.92191e-05
6 *2182:B1 *2182:B2 6.97608e-05
7 *2182:B1 *2215:B1 0
8 *2182:B1 *294:8 3.01743e-06
9 *293:8 *2182:B2 0.000181136
10 *293:8 *2215:B1 0
*RES
1 *2177:Z *293:8 19.75 
2 *293:8 *2182:B1 14.3214 
3 *293:8 *2178:A2 10 
*END

*D_NET *294 0.00046334
*CONN
*I *2215:B2 I *D OAI21_X1
*I *2183:A1 I *D NOR2_X4
*I *2178:ZN O *D AND2_X1
*CAP
1 *2215:B2 7.27533e-05
2 *2183:A1 5.27616e-05
3 *2178:ZN 7.05659e-05
4 *294:8 0.000196081
5 *2183:A1 *2178:A1 4.40064e-06
6 *2183:A1 *2183:A2 3.51536e-06
7 *2215:B2 *2181:A 1.37713e-05
8 *2215:B2 *2182:A 3.51536e-06
9 *2215:B2 *2183:A2 5.52959e-06
10 *2215:B2 *2217:B 5.05895e-06
11 *294:8 *2178:A1 1.01361e-05
12 *294:8 *2182:B2 2.22337e-05
13 *2182:B1 *294:8 3.01743e-06
*RES
1 *2178:ZN *294:8 19.0714 
2 *294:8 *2183:A1 15.3571 
3 *294:8 *2215:B2 18.6071 
*END

*D_NET *295 0.000233739
*CONN
*I *2217:C2 I *D OAI211_X1
*I *2180:B I *D XNOR2_X2
*I *2179:ZN O *D XNOR2_X2
*CAP
1 *2217:C2 3.97268e-05
2 *2180:B 9.78644e-05
3 *2179:ZN 5.81376e-05
4 *2180:B *1808:A 0
5 *2180:B *2179:B 9.57948e-06
6 *2180:B *2180:A 1.21774e-06
7 *2217:C2 *1808:A 0
8 *2217:C2 *2180:A 2.07669e-05
9 *2217:C2 *2217:A 6.44574e-06
*RES
1 *2179:ZN *2180:B 16.6071 
2 *2180:B *2217:C2 15.25 
*END

*D_NET *296 0.000260181
*CONN
*I *2181:B I *D XOR2_X2
*I *2213:A2 I *D NAND2_X1
*I *2180:ZN O *D XNOR2_X2
*CAP
1 *2181:B 3.19589e-05
2 *2213:A2 0
3 *2180:ZN 4.87531e-05
4 *296:8 8.0712e-05
5 *2181:B *2176:A 0
6 *2181:B *2213:A1 6.92212e-05
7 *2181:B *2217:A 4.92317e-06
8 *296:8 *2217:A 2.46128e-05
9 *296:8 *2217:C1 0
*RES
1 *2180:ZN *296:8 16.3571 
2 *296:8 *2213:A2 10 
3 *296:8 *2181:B 15 
*END

*D_NET *297 0.00035847
*CONN
*I *2215:A I *D OAI21_X1
*I *2182:A I *D OAI21_X2
*I *2181:Z O *D XOR2_X2
*CAP
1 *2215:A 0
2 *2182:A 7.86922e-05
3 *2181:Z 8.51227e-05
4 *297:6 0.000163815
5 *2182:A *2178:A1 0
6 *2182:A *2217:B 3.65322e-06
7 *297:6 *2181:A 0
8 *297:6 *2217:B 2.36711e-05
9 *2215:B2 *2182:A 3.51536e-06
*RES
1 *2181:Z *297:6 14.25 
2 *297:6 *2182:A 13.2143 
3 *297:6 *2215:A 5 
*END

*D_NET *298 8.07227e-05
*CONN
*I *2183:A2 I *D NOR2_X4
*I *2182:ZN O *D OAI21_X2
*CAP
1 *2183:A2 3.58389e-05
2 *2182:ZN 3.58389e-05
3 *2183:A1 *2183:A2 3.51536e-06
4 *2215:B2 *2183:A2 5.52959e-06
*RES
1 *2182:ZN *2183:A2 13.75 
*END

*D_NET *299 0.000737898
*CONN
*I *2224:B2 I *D AOI21_X1
*I *2186:A I *D OAI21_X2
*I *2183:ZN O *D NOR2_X4
*CAP
1 *2224:B2 0
2 *2186:A 8.90034e-05
3 *2183:ZN 8.44845e-05
4 *299:8 0.000173488
5 *2186:A *2186:B2 0.000235531
6 *2186:A *2187:C2 0
7 *2186:A *2206:A1 9.24246e-06
8 *299:8 *2186:B2 0.000146149
9 *299:8 *2187:C2 0
10 *2187:A *2186:A 0
*RES
1 *2183:ZN *299:8 21.7857 
2 *299:8 *2186:A 23.8214 
3 *299:8 *2224:B2 10 
*END

*D_NET *300 0.000451501
*CONN
*I *2220:A2 I *D NOR2_X1
*I *2185:B I *D XNOR2_X1
*I *2184:ZN O *D XNOR2_X1
*CAP
1 *2220:A2 3.6202e-05
2 *2185:B 0
3 *2184:ZN 6.60232e-05
4 *300:12 0.000102225
5 *2220:A2 *2185:A 1.0303e-05
6 *2220:A2 *2216:A 8.22158e-05
7 *300:12 *2184:B 0.00012095
8 *300:12 *2185:A 3.35822e-05
9 *300:12 *2216:A 0
*RES
1 *2184:ZN *300:12 24.6071 
2 *300:12 *2185:B 5 
3 *300:12 *2220:A2 20.5714 
*END

*D_NET *301 0.000626039
*CONN
*I *2221:B1 I *D AOI21_X1
*I *2186:B1 I *D OAI21_X2
*I *2187:C1 I *D AOI211_X2
*I *2185:ZN O *D XNOR2_X1
*CAP
1 *2221:B1 0
2 *2186:B1 0
3 *2187:C1 4.40801e-05
4 *2185:ZN 0.000103388
5 *301:16 0.000112002
6 *301:12 0.00017131
7 *2187:C1 *2187:B 9.99269e-06
8 *2187:C1 *2206:A1 0
9 *301:12 *2184:B 4.52607e-06
10 *301:12 *2185:A 0
11 *301:12 *2216:A 4.72173e-05
12 *301:12 *2221:A 0.000129487
13 *301:16 *2185:A 0
14 *301:16 *2187:B 1.28122e-06
15 *301:16 *2221:A 2.75346e-06
*RES
1 *2185:ZN *301:12 30.1071 
2 *301:12 *301:16 6.67857 
3 *301:16 *2187:C1 9.75 
4 *301:16 *2186:B1 5 
5 *301:12 *2221:B1 5 
*END

*D_NET *302 0.00013063
*CONN
*I *2187:B I *D AOI211_X2
*I *2186:ZN O *D OAI21_X2
*CAP
1 *2187:B 5.96782e-05
2 *2186:ZN 5.96782e-05
3 *2187:B *2185:A 0
4 *2187:C1 *2187:B 9.99269e-06
5 *301:16 *2187:B 1.28122e-06
*RES
1 *2186:ZN *2187:B 16.25 
*END

*D_NET *303 0.0012433
*CONN
*I *2212:A I *D OAI21_X1
*I *1425:A1 I *D NAND4_X2
*I *2187:ZN O *D AOI211_X2
*CAP
1 *2212:A 1.76614e-05
2 *1425:A1 9.62478e-05
3 *2187:ZN 0.000144397
4 *303:18 0.000263483
5 *303:16 0.000293971
6 *1425:A1 *1422:A2 3.65322e-06
7 *1425:A1 *1425:A2 9.14865e-06
8 *1425:A1 *1484:A 0
9 *1425:A1 *2205:A3 0
10 *1425:A1 *2212:B1 0
11 *1425:A1 *2212:B2 1.58752e-05
12 *1425:A1 *306:16 0
13 *1425:A1 *344:10 1.65332e-05
14 *2212:A *2212:B1 0
15 *2212:A *2212:B2 1.39839e-06
16 *2212:A *344:10 0
17 *303:16 *2211:C2 9.57492e-07
18 *303:16 *304:10 0.000107663
19 *303:16 *340:12 0
20 *303:18 *1422:A2 0
21 *303:18 *2210:A 4.76429e-07
22 *303:18 *2211:C1 6.84316e-05
23 *303:18 *2212:B2 0.000117024
24 *303:18 *304:10 3.02351e-05
25 *303:18 *306:10 7.18184e-06
26 *303:18 *306:16 4.89653e-05
27 *303:18 *309:10 0
28 *2187:A *303:16 0
*RES
1 *2187:ZN *303:16 36.7857 
2 *303:16 *303:18 22.6429 
3 *303:18 *1425:A1 21.2143 
4 *303:18 *2212:A 11.75 
*END

*D_NET *304 0.000564862
*CONN
*I *2189:B I *D XNOR2_X1
*I *2211:C1 I *D OAI221_X1
*I *2188:ZN O *D XNOR2_X1
*CAP
1 *2189:B 0
2 *2211:C1 3.174e-05
3 *2188:ZN 0.000138683
4 *304:10 0.000170423
5 *2211:C1 *2210:A 4.87933e-06
6 *2211:C1 *2211:C2 1.28069e-05
7 *2211:C1 *340:12 0
8 *304:10 *340:12 0
9 *303:16 *304:10 0.000107663
10 *303:18 *2211:C1 6.84316e-05
11 *303:18 *304:10 3.02351e-05
*RES
1 *2188:ZN *304:10 26.2857 
2 *304:10 *2211:C1 14.8929 
3 *304:10 *2189:B 10 
*END

*D_NET *305 0.000337274
*CONN
*I *2206:A2 I *D NAND2_X1
*I *2190:B I *D XNOR2_X1
*I *2189:ZN O *D XNOR2_X1
*CAP
1 *2206:A2 0
2 *2190:B 5.11055e-05
3 *2189:ZN 9.63007e-05
4 *305:12 0.000147406
5 *2190:B *2184:A 0
6 *305:12 *2184:A 3.65076e-05
7 *305:12 *2190:A 0
8 *305:12 *2211:A 0
9 *305:12 *2211:C2 2.75346e-06
10 *305:12 *306:10 3.20076e-06
*RES
1 *2189:ZN *305:12 16.0357 
2 *305:12 *2190:B 10.5714 
3 *305:12 *2206:A2 5 
*END

*D_NET *306 0.00071095
*CONN
*I *2211:B1 I *D OAI221_X1
*I *2205:A1 I *D NOR3_X1
*I *1422:A1 I *D NOR2_X1
*I *2190:ZN O *D XNOR2_X1
*CAP
1 *2211:B1 2.61483e-05
2 *2205:A1 0
3 *1422:A1 3.22389e-05
4 *2190:ZN 7.07376e-05
5 *306:16 0.000141414
6 *306:10 0.000206061
7 *1422:A1 *1422:A2 5.32629e-05
8 *1422:A1 *309:10 1.6441e-05
9 *2211:B1 *2190:A 1.31828e-05
10 *2211:B1 *2211:A 3.76649e-05
11 *2211:B1 *2211:B2 2.75346e-06
12 *306:10 *2190:A 0
13 *306:10 *2211:A 2.26406e-05
14 *306:16 *2205:A2 7.19036e-06
15 *306:16 *2212:B1 1.32348e-05
16 *306:16 *309:10 8.63072e-06
17 *1425:A1 *306:16 0
18 *303:18 *306:10 7.18184e-06
19 *303:18 *306:16 4.89653e-05
20 *305:12 *306:10 3.20076e-06
*RES
1 *2190:ZN *306:10 18.0357 
2 *306:10 *306:16 19.0357 
3 *306:16 *1422:A1 18.6429 
4 *306:16 *2205:A1 5 
5 *306:10 *2211:B1 13.75 
*END

*D_NET *307 0.000548856
*CONN
*I *2208:A2 I *D NOR2_X1
*I *2192:B I *D XNOR2_X1
*I *2191:ZN O *D XNOR2_X1
*CAP
1 *2208:A2 9.87372e-06
2 *2192:B 3.49277e-05
3 *2191:ZN 6.48434e-05
4 *307:8 0.000109645
5 *2192:B *508:8 8.16741e-05
6 *2208:A2 *2209:A 1.87392e-05
7 *307:8 *2191:B 1.77822e-05
8 *307:8 *508:8 0.000211371
*RES
1 *2191:ZN *307:8 21.1071 
2 *307:8 *2192:B 15.0714 
3 *307:8 *2208:A2 11.75 
*END

*D_NET *308 0.000438191
*CONN
*I *2193:B I *D XNOR2_X1
*I *2209:B1 I *D AOI21_X1
*I *2192:ZN O *D XNOR2_X1
*CAP
1 *2193:B 9.54619e-05
2 *2209:B1 0
3 *2192:ZN 4.86899e-05
4 *308:10 0.000144152
5 *2193:B *1484:C2 0
6 *2193:B *2193:A 3.96215e-05
7 *2193:B *2209:A 0
8 *2193:B *2209:B2 0.000108745
9 *2193:B *2211:B2 1.52083e-06
10 *2193:B *508:8 0
11 *308:10 *2192:A 0
12 *308:10 *2209:A 0
*RES
1 *2192:ZN *308:10 9.92857 
2 *308:10 *2209:B1 5 
3 *308:10 *2193:B 28.0357 
*END

*D_NET *309 0.000525634
*CONN
*I *2205:A2 I *D NOR3_X1
*I *1422:A2 I *D NOR2_X1
*I *2193:ZN O *D XNOR2_X1
*CAP
1 *2205:A2 4.58803e-06
2 *1422:A2 4.45751e-05
3 *2193:ZN 0.000158604
4 *309:10 0.000207767
5 *1422:A2 *2205:A3 0
6 *2205:A2 *2205:A3 2.39679e-06
7 *309:10 *1484:A 0
8 *309:10 *1484:C2 0
9 *309:10 *2205:A3 0
10 *309:10 *2212:B1 1.85251e-05
11 *1422:A1 *1422:A2 5.32629e-05
12 *1422:A1 *309:10 1.6441e-05
13 *1425:A1 *1422:A2 3.65322e-06
14 *303:18 *1422:A2 0
15 *303:18 *309:10 0
16 *306:16 *2205:A2 7.19036e-06
17 *306:16 *309:10 8.63072e-06
*RES
1 *2193:ZN *309:10 26.2143 
2 *309:10 *1422:A2 15.0714 
3 *309:10 *2205:A2 10.75 
*END

*D_NET *310 0.000166239
*CONN
*I *2196:A1 I *D NOR2_X1
*I *2194:ZN O *D INV_X1
*CAP
1 *2196:A1 7.09545e-05
2 *2194:ZN 7.09545e-05
3 *2196:A1 *2194:A 1.01915e-05
4 *2196:A1 *2195:A 1.41383e-05
*RES
1 *2194:ZN *2196:A1 17.2143 
*END

*D_NET *311 0.000362617
*CONN
*I *2196:A2 I *D NOR2_X1
*I *2197:B I *D XNOR2_X1
*I *2195:ZN O *D XNOR2_X1
*CAP
1 *2196:A2 2.24398e-05
2 *2197:B 9.66485e-06
3 *2195:ZN 8.96435e-05
4 *311:8 0.000121748
5 *2196:A2 *2194:A 4.26902e-05
6 *2196:A2 *2202:A1 4.32319e-05
7 *2196:A2 *2204:A 8.75903e-06
8 *2197:B *2194:A 1.39839e-06
9 *2197:B *2197:A 1.30565e-05
10 *311:8 *2195:A 0
11 *311:8 *2197:A 4.97191e-06
12 *311:8 *2202:A1 5.01336e-06
*RES
1 *2195:ZN *311:8 14.1786 
2 *311:8 *2197:B 6.25 
3 *311:8 *2196:A2 19.3214 
*END

*D_NET *312 0.000537176
*CONN
*I *2204:A I *D AOI21_X1
*I *2196:ZN O *D NOR2_X1
*CAP
1 *2204:A 0.000203954
2 *2196:ZN 0.000203954
3 *2204:A *2194:A 2.51216e-05
4 *2204:A *2197:A 0
5 *2204:A *2198:A2 1.40196e-06
6 *2204:A *2201:A1 0
7 *2204:A *2204:B1 6.04034e-05
8 *2204:A *2219:A 0
9 *2204:A *313:10 0
10 *2204:A *314:6 3.35822e-05
11 *2196:A2 *2204:A 8.75903e-06
*RES
1 *2196:ZN *2204:A 43.5 
*END

*D_NET *313 0.000863549
*CONN
*I *2198:A2 I *D OR2_X1
*I *2202:A2 I *D AOI22_X1
*I *1424:B1 I *D AOI21_X1
*I *2197:ZN O *D XNOR2_X1
*CAP
1 *2198:A2 5.67923e-06
2 *2202:A2 8.51109e-05
3 *1424:B1 4.88735e-05
4 *2197:ZN 9.64327e-05
5 *313:12 0.000178753
6 *313:10 0.000146881
7 *1424:B1 *1423:A 0
8 *1424:B1 *1424:A 2.39679e-06
9 *1424:B1 *1424:B2 1.28987e-05
10 *1424:B1 *2198:A1 4.18985e-05
11 *1424:B1 *2203:A2 3.39768e-05
12 *1424:B1 *316:8 0
13 *2202:A2 *1742:A 0
14 *2202:A2 *2202:B1 0
15 *2202:A2 *2203:A2 2.91766e-05
16 *313:10 *1423:A 0
17 *313:10 *2194:A 1.53342e-05
18 *313:10 *2197:A 1.70206e-05
19 *313:10 *2219:A 4.24402e-05
20 *313:12 *1423:A 0
21 *313:12 *2198:A1 0.000105274
22 *2204:A *2198:A2 1.40196e-06
23 *2204:A *313:10 0
*RES
1 *2197:ZN *313:10 21.2857 
2 *313:10 *313:12 6.35715 
3 *313:12 *1424:B1 16.5357 
4 *313:12 *2202:A2 19.7143 
5 *313:10 *2198:A2 10.75 
*END

*D_NET *314 0.000581452
*CONN
*I *1423:A I *D OAI21_X1
*I *2204:B1 I *D AOI21_X1
*I *2198:ZN O *D OR2_X1
*CAP
1 *1423:A 0.000111788
2 *2204:B1 4.45931e-05
3 *2198:ZN 2.60829e-05
4 *314:6 0.000182464
5 *1423:A *1424:B2 2.38077e-06
6 *1423:A *1487:A1 0.000120158
7 *1423:A *2198:A1 0
8 *1423:A *2201:A1 0
9 *1424:B1 *1423:A 0
10 *2204:A *2204:B1 6.04034e-05
11 *2204:A *314:6 3.35822e-05
12 *313:10 *1423:A 0
13 *313:12 *1423:A 0
*RES
1 *2198:ZN *314:6 8.25 
2 *314:6 *2204:B1 10.75 
3 *314:6 *1423:A 28.1429 
*END

*D_NET *315 0.000489584
*CONN
*I *2202:B1 I *D AOI22_X1
*I *2200:B I *D XOR2_X1
*I *2199:Z O *D XOR2_X1
*CAP
1 *2202:B1 4.07596e-05
2 *2200:B 5.76637e-06
3 *2199:Z 4.06561e-05
4 *315:8 8.71821e-05
5 *2200:B *1741:A 2.24822e-06
6 *2200:B *2200:A 2.39679e-06
7 *2202:B1 *2198:A1 0
8 *2202:B1 *2199:B 0
9 *2202:B1 *2202:B2 8.22158e-05
10 *315:8 *1489:B 6.97608e-05
11 *315:8 *2198:A1 0
12 *315:8 *2202:B2 0.000158598
13 *2202:A2 *2202:B1 0
*RES
1 *2199:Z *315:8 18.3929 
2 *315:8 *2200:B 10.75 
3 *315:8 *2202:B1 15.75 
*END

*D_NET *316 0.00036365
*CONN
*I *1423:B1 I *D OAI21_X1
*I *2201:A2 I *D NAND2_X1
*I *2200:Z O *D XOR2_X1
*CAP
1 *1423:B1 7.54016e-06
2 *2201:A2 7.23475e-05
3 *2200:Z 0.000100111
4 *316:8 0.000179998
5 *2201:A2 *1424:A 0
6 *2201:A2 *1424:B2 0
7 *2201:A2 *1425:A4 0
8 *2201:A2 *2201:A1 3.65322e-06
9 *316:8 *1424:B2 0
10 *316:8 *1741:A 0
11 *316:8 *2203:A2 0
12 *1424:B1 *316:8 0
*RES
1 *2200:Z *316:8 14.6786 
2 *316:8 *2201:A2 12.6071 
3 *316:8 *1423:B1 5.92857 
*END

*D_NET *317 0.000425169
*CONN
*I *2203:A1 I *D NAND2_X1
*I *1425:A3 I *D NAND4_X2
*I *2201:ZN O *D NAND2_X1
*CAP
1 *2203:A1 4.60811e-05
2 *1425:A3 7.1502e-05
3 *2201:ZN 3.08139e-05
4 *317:8 0.000148397
5 *1425:A3 *1425:A4 9.17646e-05
6 *2203:A1 *1425:A4 0
7 *2203:A1 *2201:A1 1.44489e-05
8 *2203:A1 *2203:A2 1.21774e-06
9 *2203:A1 *2204:B2 6.32202e-06
10 *317:8 *2201:A1 1.46216e-05
*RES
1 *2201:ZN *317:8 13.6429 
2 *317:8 *1425:A3 19.25 
3 *317:8 *2203:A1 15.5714 
*END

*D_NET *318 0.000398606
*CONN
*I *2203:A2 I *D NAND2_X1
*I *2202:ZN O *D AOI22_X1
*CAP
1 *2203:A2 0.000156362
2 *2202:ZN 0.000156362
3 *2203:A2 *1424:A 1.19839e-05
4 *2203:A2 *1425:A4 9.52656e-06
5 *1424:B1 *2203:A2 3.39768e-05
6 *2202:A2 *2203:A2 2.91766e-05
7 *2203:A1 *2203:A2 1.21774e-06
8 *316:8 *2203:A2 0
*RES
1 *2202:ZN *2203:A2 28.2143 
*END

*D_NET *319 0.000208496
*CONN
*I *2204:B2 I *D AOI21_X1
*I *2203:ZN O *D NAND2_X1
*CAP
1 *2204:B2 4.20775e-05
2 *2203:ZN 4.20775e-05
3 *2204:B2 *2201:A1 0.000118019
4 *2203:A1 *2204:B2 6.32202e-06
*RES
1 *2203:ZN *2204:B2 26.3571 
*END

*D_NET *320 0.000382613
*CONN
*I *2205:A3 I *D NOR3_X1
*I *2204:ZN O *D AOI21_X1
*CAP
1 *2205:A3 0.000189348
2 *2204:ZN 0.000189348
3 *2205:A3 *1425:A2 0
4 *2205:A3 *1485:B 1.52083e-06
5 *1422:A2 *2205:A3 0
6 *1425:A1 *2205:A3 0
7 *2205:A2 *2205:A3 2.39679e-06
8 *309:10 *2205:A3 0
*RES
1 *2204:ZN *2205:A3 39 
*END

*D_NET *321 0.000280349
*CONN
*I *2212:B1 I *D OAI21_X1
*I *2205:ZN O *D NOR3_X1
*CAP
1 *2212:B1 7.42995e-05
2 *2205:ZN 7.42995e-05
3 *2212:B1 *2210:A 8.50171e-06
4 *2212:B1 *2212:B2 9.14881e-05
5 *2212:B1 *340:12 0
6 *1425:A1 *2212:B1 0
7 *2212:A *2212:B1 0
8 *306:16 *2212:B1 1.32348e-05
9 *309:10 *2212:B1 1.85251e-05
*RES
1 *2205:ZN *2212:B1 29.75 
*END

*D_NET *322 0.000338096
*CONN
*I *2211:A I *D OAI221_X1
*I *2206:ZN O *D NAND2_X1
*CAP
1 *2211:A 0.000125448
2 *2206:ZN 0.000125448
3 *2211:A *2190:A 1.19592e-05
4 *2211:A *2206:A1 8.33759e-07
5 *2211:A *2211:C2 1.41009e-05
6 *2211:B1 *2211:A 3.76649e-05
7 *305:12 *2211:A 0
8 *306:10 *2211:A 2.26406e-05
*RES
1 *2206:ZN *2211:A 34.4286 
*END

*D_NET *323 0.000169616
*CONN
*I *2208:A1 I *D NOR2_X1
*I *2207:ZN O *D INV_X1
*CAP
1 *2208:A1 7.72479e-05
2 *2207:ZN 7.72479e-05
3 *2208:A1 *2192:A 1.35285e-06
4 *2208:A1 *2209:A 1.37673e-05
*RES
1 *2207:ZN *2208:A1 17.1429 
*END

*D_NET *324 0.000243605
*CONN
*I *2209:A I *D AOI21_X1
*I *2208:ZN O *D NOR2_X1
*CAP
1 *2209:A 0.000100467
2 *2208:ZN 0.000100467
3 *2209:A *2192:A 0
4 *2209:A *2211:B2 1.0164e-05
5 *2209:A *508:8 0
6 *2193:B *2209:A 0
7 *2208:A1 *2209:A 1.37673e-05
8 *2208:A2 *2209:A 1.87392e-05
9 *308:10 *2209:A 0
*RES
1 *2208:ZN *2209:A 31.0714 
*END

*D_NET *325 0.000354565
*CONN
*I *2211:B2 I *D OAI221_X1
*I *2209:ZN O *D AOI21_X1
*CAP
1 *2211:B2 0.000153628
2 *2209:ZN 0.000153628
3 *2211:B2 *2189:A 0
4 *2211:B2 *2190:A 3.28714e-05
5 *2211:B2 *2210:A 0
6 *2211:B2 *2211:C2 0
7 *2211:B2 *508:8 0
8 *2193:B *2211:B2 1.52083e-06
9 *2209:A *2211:B2 1.0164e-05
10 *2211:B1 *2211:B2 2.75346e-06
*RES
1 *2209:ZN *2211:B2 36.2143 
*END

*D_NET *326 0.000253385
*CONN
*I *2211:C2 I *D OAI221_X1
*I *2210:ZN O *D INV_X1
*CAP
1 *2211:C2 8.85498e-05
2 *2210:ZN 8.85498e-05
3 *2211:C2 *2189:A 2.86077e-05
4 *2211:C2 *2210:A 1.70588e-05
5 *2211:A *2211:C2 1.41009e-05
6 *2211:B2 *2211:C2 0
7 *2211:C1 *2211:C2 1.28069e-05
8 *303:16 *2211:C2 9.57492e-07
9 *305:12 *2211:C2 2.75346e-06
*RES
1 *2210:ZN *2211:C2 21.6429 
*END

*D_NET *327 0.000540575
*CONN
*I *2212:B2 I *D OAI21_X1
*I *2211:ZN O *D OAI221_X1
*CAP
1 *2212:B2 0.000129174
2 *2211:ZN 0.000129174
3 *2212:B2 *1484:A 0
4 *2212:B2 *2210:A 5.45267e-05
5 *2212:B2 *340:12 0
6 *2212:B2 *344:10 1.91498e-06
7 *1425:A1 *2212:B2 1.58752e-05
8 *2212:A *2212:B2 1.39839e-06
9 *2212:B1 *2212:B2 9.14881e-05
10 *303:18 *2212:B2 0.000117024
*RES
1 *2211:ZN *2212:B2 41.25 
*END

*D_NET *328 0.000226894
*CONN
*I *1484:A I *D OAI211_X2
*I *2212:ZN O *D OAI21_X1
*CAP
1 *1484:A 6.51689e-05
2 *2212:ZN 6.51689e-05
3 *1484:A *1484:B 7.72537e-06
4 *1484:A *1485:A 0
5 *1484:A *1590:A1 8.26038e-06
6 *1484:A *340:12 6.84316e-05
7 *1484:A *344:10 1.21394e-05
8 *1425:A1 *1484:A 0
9 *2212:B2 *1484:A 0
10 *309:10 *1484:A 0
*RES
1 *2212:ZN *1484:A 28.1429 
*END

*D_NET *329 0.000206761
*CONN
*I *2217:A I *D OAI211_X1
*I *2213:ZN O *D NAND2_X1
*CAP
1 *2217:A 8.09145e-05
2 *2213:ZN 8.09145e-05
3 *2217:A *2213:A1 1.88334e-06
4 *2217:A *2217:B 7.06703e-06
5 *2181:B *2217:A 4.92317e-06
6 *2217:C2 *2217:A 6.44574e-06
7 *296:8 *2217:A 2.46128e-05
*RES
1 *2213:ZN *2217:A 30.2857 
*END

*D_NET *330 0.000378132
*CONN
*I *2215:B1 I *D OAI21_X1
*I *2214:ZN O *D AND2_X1
*CAP
1 *2215:B1 8.41597e-05
2 *2214:ZN 8.41597e-05
3 *2215:B1 *2178:A1 0
4 *2215:B1 *2214:A1 0.000198376
5 *2182:B1 *2215:B1 0
6 *292:14 *2215:B1 1.14365e-05
7 *293:8 *2215:B1 0
*RES
1 *2214:ZN *2215:B1 32.4643 
*END

*D_NET *331 0.000354854
*CONN
*I *2217:B I *D OAI211_X1
*I *2215:ZN O *D OAI21_X1
*CAP
1 *2217:B 0.000157702
2 *2215:ZN 0.000157702
3 *2217:B *2181:A 0
4 *2217:B *2213:A1 0
5 *2217:B *2214:A1 0
6 *2182:A *2217:B 3.65322e-06
7 *2215:B2 *2217:B 5.05895e-06
8 *2217:A *2217:B 7.06703e-06
9 *297:6 *2217:B 2.36711e-05
*RES
1 *2215:ZN *2217:B 38.0357 
*END

*D_NET *332 7.70089e-05
*CONN
*I *2217:C1 I *D OAI211_X1
*I *2216:ZN O *D INV_X1
*CAP
1 *2217:C1 3.85045e-05
2 *2216:ZN 3.85045e-05
3 *296:8 *2217:C1 0
*RES
1 *2216:ZN *2217:C1 23.6429 
*END

*D_NET *333 0.000329826
*CONN
*I *2224:A I *D AOI21_X1
*I *2217:ZN O *D OAI211_X1
*CAP
1 *2224:A 0.000142426
2 *2217:ZN 0.000142426
3 *2224:A *2180:A 4.08726e-05
4 *2224:A *2223:B2 0
5 *2224:A *2224:B1 2.16072e-07
6 *2224:A *340:10 3.88456e-06
*RES
1 *2217:ZN *2224:A 25.1786 
*END

*D_NET *334 0.000113902
*CONN
*I *2223:A I *D OAI221_X1
*I *2218:ZN O *D NAND2_X1
*CAP
1 *2223:A 5.01452e-05
2 *2218:ZN 5.01452e-05
3 *2223:A *2223:B2 8.43215e-07
4 *2223:A *340:10 1.27684e-05
5 *291:6 *2223:A 0
*RES
1 *2218:ZN *2223:A 15.1071 
*END

*D_NET *335 0.000161992
*CONN
*I *2220:A1 I *D NOR2_X1
*I *2219:ZN O *D INV_X1
*CAP
1 *2220:A1 8.09959e-05
2 *2219:ZN 8.09959e-05
3 *2220:A1 *2185:A 0
*RES
1 *2219:ZN *2220:A1 18.25 
*END

*D_NET *336 0.000308499
*CONN
*I *2221:A I *D AOI21_X1
*I *2220:ZN O *D NOR2_X1
*CAP
1 *2221:A 8.19165e-05
2 *2220:ZN 8.19165e-05
3 *2221:A *2179:A 1.64141e-06
4 *2221:A *2184:B 8.70312e-06
5 *2221:A *2216:A 2.08098e-06
6 *301:12 *2221:A 0.000129487
7 *301:16 *2221:A 2.75346e-06
*RES
1 *2220:ZN *2221:A 31.2143 
*END

*D_NET *337 0.000556113
*CONN
*I *2223:B2 I *D OAI221_X1
*I *2221:ZN O *D AOI21_X1
*CAP
1 *2223:B2 0.000251164
2 *2221:ZN 0.000251164
3 *2223:B2 *2178:A1 7.66675e-07
4 *2223:B2 *2186:B2 0
5 *2223:B2 *2206:A1 0
6 *2223:B2 *2224:B1 4.323e-05
7 *2223:B2 *340:10 0
8 *2187:A *2223:B2 8.94571e-06
9 *2223:A *2223:B2 8.43215e-07
10 *2224:A *2223:B2 0
*RES
1 *2221:ZN *2223:B2 47.0357 
*END

*D_NET *338 0.000197152
*CONN
*I *2223:C2 I *D OAI221_X1
*I *2222:ZN O *D INV_X1
*CAP
1 *2223:C2 4.52651e-05
2 *2222:ZN 4.52651e-05
3 *2223:C2 *2218:A1 0
4 *2223:C2 *2222:A 0.000106622
5 *2223:C2 *340:12 0
*RES
1 *2222:ZN *2223:C2 26.3571 
*END

*D_NET *339 0.000252965
*CONN
*I *2224:B1 I *D AOI21_X1
*I *2223:ZN O *D OAI221_X1
*CAP
1 *2224:B1 9.75272e-05
2 *2223:ZN 9.75272e-05
3 *2224:B1 *340:10 1.44644e-05
4 *2223:B2 *2224:B1 4.323e-05
5 *2224:A *2224:B1 2.16072e-07
*RES
1 *2223:ZN *2224:B1 21.7857 
*END

*D_NET *340 0.00148985
*CONN
*I *1484:B I *D OAI211_X2
*I *2224:ZN O *D AOI21_X1
*CAP
1 *1484:B 5.55931e-06
2 *2224:ZN 0.000125584
3 *340:12 0.000464887
4 *340:10 0.000584912
5 *1484:B *1485:A 0
6 *340:10 *2187:C2 1.1025e-05
7 *340:12 *2188:B 0
8 *340:12 *2190:A 2.13496e-05
9 *340:12 *2210:A 4.50965e-05
10 *340:12 *2218:A1 5.67661e-05
11 *340:12 *2222:A 0
12 *1484:A *1484:B 7.72537e-06
13 *1484:A *340:12 6.84316e-05
14 *2175:B *340:12 1.79373e-05
15 *2211:C1 *340:12 0
16 *2212:B1 *340:12 0
17 *2212:B2 *340:12 0
18 *2223:A *340:10 1.27684e-05
19 *2223:B1 *340:12 0
20 *2223:B2 *340:10 0
21 *2223:C1 *340:10 4.4061e-05
22 *2223:C2 *340:12 0
23 *2224:A *340:10 3.88456e-06
24 *2224:B1 *340:10 1.44644e-05
25 *290:8 *340:12 5.39659e-06
26 *291:6 *340:10 0
27 *303:16 *340:12 0
28 *304:10 *340:12 0
*RES
1 *2224:ZN *340:10 25.0357 
2 *340:10 *340:12 54.5357 
3 *340:12 *1484:B 10.75 
*END

*D_NET *341 6.77542e-05
*CONN
*I *1425:A2 I *D NAND4_X2
*I *1422:ZN O *D NOR2_X1
*CAP
1 *1425:A2 2.93028e-05
2 *1422:ZN 2.93028e-05
3 *1425:A1 *1425:A2 9.14865e-06
4 *2205:A3 *1425:A2 0
*RES
1 *1422:ZN *1425:A2 13.1786 
*END

*D_NET *342 0.000193674
*CONN
*I *1424:A I *D AOI21_X1
*I *1423:ZN O *D OAI21_X1
*CAP
1 *1424:A 4.20154e-05
2 *1423:ZN 4.20154e-05
3 *1424:A *1425:A4 8.43215e-07
4 *1424:A *1487:A1 9.44188e-05
5 *1424:A *2201:A1 0
6 *1424:B1 *1424:A 2.39679e-06
7 *2201:A2 *1424:A 0
8 *2203:A2 *1424:A 1.19839e-05
*RES
1 *1423:ZN *1424:A 26.25 
*END

*D_NET *343 0.000372972
*CONN
*I *1425:A4 I *D NAND4_X2
*I *1424:ZN O *D AOI21_X1
*CAP
1 *1425:A4 0.000135237
2 *1424:ZN 0.000135237
3 *1425:A4 *2201:A1 3.64759e-07
4 *1424:A *1425:A4 8.43215e-07
5 *1425:A3 *1425:A4 9.17646e-05
6 *2201:A2 *1425:A4 0
7 *2203:A1 *1425:A4 0
8 *2203:A2 *1425:A4 9.52656e-06
*RES
1 *1424:ZN *1425:A4 26.1071 
*END

*D_NET *344 0.000606392
*CONN
*I *1484:C1 I *D OAI211_X2
*I *1590:A1 I *D NOR3_X4
*I *1425:ZN O *D NAND4_X2
*CAP
1 *1484:C1 0
2 *1590:A1 0.000125781
3 *1425:ZN 0.000136538
4 *344:10 0.000262319
5 *1590:A1 *1484:C2 0
6 *1590:A1 *1485:A 0
7 *1590:A1 *1605:B2 3.35796e-05
8 *1590:A1 *2209:B2 4.31185e-06
9 *1590:A1 *403:10 5.01336e-06
10 *1425:A1 *344:10 1.65332e-05
11 *1484:A *1590:A1 8.26038e-06
12 *1484:A *344:10 1.21394e-05
13 *2212:A *344:10 0
14 *2212:B2 *344:10 1.91498e-06
*RES
1 *1425:ZN *344:10 20.7857 
2 *344:10 *1590:A1 19.3929 
3 *344:10 *1484:C1 5 
*END

*D_NET *345 0.000350608
*CONN
*I *1427:B I *D XNOR2_X1
*I *1450:C2 I *D OAI211_X1
*I *1426:ZN O *D XNOR2_X1
*CAP
1 *1427:B 0
2 *1450:C2 5.83756e-05
3 *1426:ZN 9.14077e-05
4 *345:8 0.000149783
5 *1450:C2 *1426:A 0
6 *1450:C2 *1427:A 4.4596e-05
7 *1450:C2 *1450:C1 6.44574e-06
8 *1450:C2 *369:18 0
9 *345:8 *1426:A 0
*RES
1 *1426:ZN *345:8 14.1786 
2 *345:8 *1450:C2 12.3571 
3 *345:8 *1427:B 5 
*END

*D_NET *346 0.000434231
*CONN
*I *1428:A2 I *D NAND2_X1
*I *1429:B I *D XNOR2_X1
*I *1427:ZN O *D XNOR2_X1
*CAP
1 *1428:A2 0
2 *1429:B 4.22945e-05
3 *1427:ZN 9.45712e-05
4 *346:12 0.000136866
5 *1429:B *1428:A1 3.65322e-06
6 *1429:B *1451:A 0
7 *1429:B *400:14 5.06354e-05
8 *346:12 *1428:A1 1.21774e-06
9 *346:12 *1450:A 9.45663e-06
10 *346:12 *369:18 5.99145e-05
11 *346:12 *400:14 3.56223e-05
*RES
1 *1427:ZN *346:12 27.8214 
2 *346:12 *1429:B 10.6786 
3 *346:12 *1428:A2 5 
*END

*D_NET *347 0.00023813
*CONN
*I *1450:A I *D OAI211_X1
*I *1428:ZN O *D NAND2_X1
*CAP
1 *1450:A 0.000106777
2 *1428:ZN 0.000106777
3 *1450:A *1427:A 3.09411e-06
4 *1450:A *1450:B 2.75346e-06
5 *1450:A *369:18 9.27145e-06
6 *346:12 *1450:A 9.45663e-06
*RES
1 *1428:ZN *1450:A 31.8571 
*END

*D_NET *348 0.000765481
*CONN
*I *1434:A I *D AOI21_X1
*I *1447:A1 I *D NOR2_X1
*I *1429:ZN O *D XNOR2_X1
*CAP
1 *1434:A 7.1452e-05
2 *1447:A1 0.000104136
3 *1429:ZN 5.93852e-05
4 *348:8 0.000234973
5 *1434:A *1429:A 0
6 *1434:A *1434:B2 7.16188e-07
7 *1434:A *1448:A 2.07643e-05
8 *1447:A1 *1434:B2 0
9 *1447:A1 *1447:A2 1.21774e-06
10 *1447:A1 *1448:A 0
11 *1447:A1 *1450:B 3.86395e-05
12 *1447:A1 *1481:A1 3.19164e-06
13 *1447:A1 *364:16 1.506e-05
14 *1447:A1 *366:14 1.81088e-05
15 *1447:A1 *400:14 0.000107663
16 *348:8 *400:14 9.0173e-05
*RES
1 *1429:ZN *348:8 17.7143 
2 *348:8 *1447:A1 24.9286 
3 *348:8 *1434:A 19.25 
*END

*D_NET *349 0.000334848
*CONN
*I *1432:B I *D XOR2_X1
*I *1431:A2 I *D NAND2_X1
*I *1430:Z O *D XOR2_X1
*CAP
1 *1432:B 1.4575e-05
2 *1431:A2 5.15919e-05
3 *1430:Z 3.74484e-05
4 *349:8 0.000103615
5 *1431:A2 *1429:A 1.52083e-06
6 *1431:A2 *1430:A 6.27023e-05
7 *1431:A2 *1431:A1 2.26252e-05
8 *1431:A2 *1434:B1 2.39679e-06
9 *349:8 *1430:A 2.06681e-05
10 *349:8 *1431:A1 1.77043e-05
*RES
1 *1430:Z *349:8 15 
2 *349:8 *1431:A2 18.1071 
3 *349:8 *1432:B 11.25 
*END

*D_NET *350 0.000258393
*CONN
*I *1434:B1 I *D AOI21_X1
*I *1431:ZN O *D NAND2_X1
*CAP
1 *1434:B1 9.58703e-05
2 *1431:ZN 9.58703e-05
3 *1434:B1 *1429:A 3.61803e-05
4 *1434:B1 *1430:A 0
5 *1434:B1 *1431:A1 2.80752e-05
6 *1431:A2 *1434:B1 2.39679e-06
*RES
1 *1431:ZN *1434:B1 31.2857 
*END

*D_NET *351 0.000454984
*CONN
*I *1433:A2 I *D NAND2_X1
*I *1446:B I *D XNOR2_X1
*I *1432:Z O *D XOR2_X1
*CAP
1 *1433:A2 1.59498e-05
2 *1446:B 3.4808e-05
3 *1432:Z 9.94018e-05
4 *351:8 0.00015016
5 *1433:A2 *1433:A1 7.2187e-06
6 *1433:A2 *1447:A2 0
7 *1446:B *1432:A 3.02001e-05
8 *1446:B *1437:A1 0
9 *1446:B *1446:A 8.26038e-06
10 *1446:B *1447:A2 7.72792e-06
11 *351:8 *1430:A 9.05228e-06
12 *351:8 *1432:A 9.22054e-05
13 *351:8 *1433:A1 0
*RES
1 *1432:Z *351:8 24.5 
2 *351:8 *1446:B 15.0714 
3 *351:8 *1433:A2 11.75 
*END

*D_NET *352 8.62459e-05
*CONN
*I *1434:B2 I *D AOI21_X1
*I *1433:ZN O *D NAND2_X1
*CAP
1 *1434:B2 4.27648e-05
2 *1433:ZN 4.27648e-05
3 *1434:B2 *1430:A 0
4 *1434:B2 *1447:A2 0
5 *1434:A *1434:B2 7.16188e-07
6 *1447:A1 *1434:B2 0
*RES
1 *1433:ZN *1434:B2 14.25 
*END

*D_NET *353 0.000201388
*CONN
*I *1448:A I *D AOI21_X1
*I *1434:ZN O *D AOI21_X1
*CAP
1 *1448:A 8.76338e-05
2 *1434:ZN 8.76338e-05
3 *1448:A *366:14 1.91667e-07
4 *1448:A *400:14 5.16467e-06
5 *1434:A *1448:A 2.07643e-05
6 *1447:A1 *1448:A 0
*RES
1 *1434:ZN *1448:A 29.75 
*END

*D_NET *354 0.000335744
*CONN
*I *1445:C2 I *D OAI211_X1
*I *1436:B I *D XNOR2_X1
*I *1435:ZN O *D XNOR2_X2
*CAP
1 *1445:C2 3.67385e-05
2 *1436:B 0
3 *1435:ZN 5.98908e-05
4 *354:8 9.66293e-05
5 *1445:C2 *1436:A 0
6 *1445:C2 *1445:A 2.11815e-06
7 *1445:C2 *1445:C1 2.28027e-05
8 *1445:C2 *355:8 6.97608e-05
9 *354:8 *1444:A 3.25548e-05
10 *354:8 *1445:C1 1.5249e-05
*RES
1 *1435:ZN *354:8 18.3929 
2 *354:8 *1436:B 10 
3 *354:8 *1445:C2 16.25 
*END

*D_NET *355 0.00043045
*CONN
*I *1438:B I *D XOR2_X1
*I *1437:A2 I *D NAND2_X1
*I *1436:ZN O *D XNOR2_X1
*CAP
1 *1438:B 2.39485e-05
2 *1437:A2 4.41866e-05
3 *1436:ZN 5.1842e-05
4 *355:8 0.000119977
5 *1437:A2 *1445:A 1.28577e-06
6 *1438:B *1437:A1 0
7 *1438:B *1445:A 2.71623e-06
8 *1438:B *364:16 5.56165e-05
9 *355:8 *1445:A 1.18865e-05
10 *355:8 *1445:C1 6.03486e-06
11 *355:8 *364:16 4.31956e-05
12 *1445:C2 *355:8 6.97608e-05
*RES
1 *1436:ZN *355:8 18.3929 
2 *355:8 *1437:A2 14.25 
3 *355:8 *1438:B 13.7143 
*END

*D_NET *356 0.000158376
*CONN
*I *1445:A I *D OAI211_X1
*I *1437:ZN O *D NAND2_X1
*CAP
1 *1445:A 6.74313e-05
2 *1437:ZN 6.74313e-05
3 *1445:A *1436:A 0
4 *1445:A *1438:A 0
5 *1445:A *1445:B 2.75346e-06
6 *1445:A *1445:C1 2.75346e-06
7 *1437:A2 *1445:A 1.28577e-06
8 *1438:B *1445:A 2.71623e-06
9 *1445:C2 *1445:A 2.11815e-06
10 *355:8 *1445:A 1.18865e-05
*RES
1 *1437:ZN *1445:A 27.3929 
*END

*D_NET *357 0.000505275
*CONN
*I *1481:A2 I *D NAND3_X1
*I *1443:A I *D OAI21_X1
*I *1438:Z O *D XOR2_X1
*CAP
1 *1481:A2 8.00683e-05
2 *1443:A 5.23879e-05
3 *1438:Z 9.92806e-05
4 *357:10 0.000231737
5 *1443:A *1442:A2 0
6 *1443:A *1443:B2 2.16072e-07
7 *1443:A *1445:B 1.32732e-05
8 *1443:A *1480:B 1.87418e-05
9 *1481:A2 *1480:B 0
10 *1481:A2 *1481:A3 2.75346e-06
11 *357:10 *1438:A 6.81719e-06
12 *357:10 *1445:B 0
*RES
1 *1438:Z *357:10 15.4286 
2 *357:10 *1443:A 11.5357 
3 *357:10 *1481:A2 14.25 
*END

*D_NET *358 0.000275516
*CONN
*I *1440:A2 I *D AND2_X1
*I *1441:B I *D XOR2_X1
*I *1439:Z O *D XOR2_X1
*CAP
1 *1440:A2 2.0792e-05
2 *1441:B 0
3 *1439:Z 4.19207e-05
4 *358:8 6.27127e-05
5 *1440:A2 *1439:B 2.64615e-05
6 *1440:A2 *360:10 1.25431e-05
7 *358:8 *1439:B 1.53357e-05
8 *358:8 *1441:A 9.57501e-05
*RES
1 *1439:Z *358:8 17.0357 
2 *358:8 *1441:B 10 
3 *358:8 *1440:A2 13.6429 
*END

*D_NET *359 0.000144088
*CONN
*I *1443:B1 I *D OAI21_X1
*I *1440:ZN O *D AND2_X1
*CAP
1 *1443:B1 5.69518e-05
2 *1440:ZN 5.69518e-05
3 *1443:B1 *1480:A 0
4 *1443:B1 *1480:B 1.7644e-05
5 *1443:B1 *360:10 1.25407e-05
*RES
1 *1440:ZN *1443:B1 27.0357 
*END

*D_NET *360 0.000551779
*CONN
*I *1480:B I *D XOR2_X1
*I *1442:A2 I *D AND2_X1
*I *1441:Z O *D XOR2_X1
*CAP
1 *1480:B 0.0001038
2 *1442:A2 6.7576e-05
3 *1441:Z 6.6574e-05
4 *360:10 0.00023795
5 *1442:A2 *1439:B 0
6 *1442:A2 *1443:B2 6.07323e-06
7 *1442:A2 *1445:B 0
8 *1442:A2 *1059:14 0
9 *1480:B *1443:B2 6.07323e-06
10 *1480:B *1481:A3 0
11 *360:10 *1439:B 2.26306e-06
12 *1440:A2 *360:10 1.25431e-05
13 *1443:A *1442:A2 0
14 *1443:A *1480:B 1.87418e-05
15 *1443:B1 *1480:B 1.7644e-05
16 *1443:B1 *360:10 1.25407e-05
17 *1481:A2 *1480:B 0
*RES
1 *1441:Z *360:10 18.2857 
2 *360:10 *1442:A2 17.25 
3 *360:10 *1480:B 21.9286 
*END

*D_NET *361 0.000109133
*CONN
*I *1443:B2 I *D OAI21_X1
*I *1442:ZN O *D AND2_X1
*CAP
1 *1443:B2 4.83851e-05
2 *1442:ZN 4.83851e-05
3 *1442:A2 *1443:B2 6.07323e-06
4 *1443:A *1443:B2 2.16072e-07
5 *1480:B *1443:B2 6.07323e-06
*RES
1 *1442:ZN *1443:B2 15.3571 
*END

*D_NET *362 0.000320698
*CONN
*I *1445:B I *D OAI211_X1
*I *1443:ZN O *D OAI21_X1
*CAP
1 *1445:B 0.000151399
2 *1443:ZN 0.000151399
3 *1445:B *1438:A 0
4 *1445:B *1445:C1 1.87369e-06
5 *1442:A2 *1445:B 0
6 *1443:A *1445:B 1.32732e-05
7 *1445:A *1445:B 2.75346e-06
8 *357:10 *1445:B 0
*RES
1 *1443:ZN *1445:B 25.6071 
*END

*D_NET *363 0.000216412
*CONN
*I *1445:C1 I *D OAI211_X1
*I *1444:ZN O *D INV_X1
*CAP
1 *1445:C1 6.81902e-05
2 *1444:ZN 6.81902e-05
3 *1445:C1 *1436:A 0
4 *1445:C1 *1438:A 3.13177e-05
5 *1445:A *1445:C1 2.75346e-06
6 *1445:B *1445:C1 1.87369e-06
7 *1445:C2 *1445:C1 2.28027e-05
8 *354:8 *1445:C1 1.5249e-05
9 *355:8 *1445:C1 6.03486e-06
*RES
1 *1444:ZN *1445:C1 30.5 
*END

*D_NET *364 0.000727875
*CONN
*I *1448:B1 I *D AOI21_X1
*I *1445:ZN O *D OAI211_X1
*CAP
1 *1448:B1 0
2 *1445:ZN 0.00024041
3 *364:16 0.00024041
4 *364:16 *1427:A 1.74265e-05
5 *364:16 *1432:A 5.61902e-05
6 *364:16 *1437:A1 0
7 *364:16 *1446:A 1.80284e-05
8 *364:16 *1447:A2 1.30667e-05
9 *364:16 *1481:A1 1.21774e-06
10 *364:16 *366:14 2.72526e-05
11 *1438:B *364:16 5.56165e-05
12 *1447:A1 *364:16 1.506e-05
13 *355:8 *364:16 4.31956e-05
*RES
1 *1445:ZN *364:16 46.6786 
2 *364:16 *1448:B1 5 
*END

*D_NET *365 0.000154139
*CONN
*I *1447:A2 I *D NOR2_X1
*I *1446:ZN O *D XNOR2_X1
*CAP
1 *1447:A2 6.27835e-05
2 *1446:ZN 6.27835e-05
3 *1447:A2 *1446:A 6.56007e-06
4 *1433:A2 *1447:A2 0
5 *1434:B2 *1447:A2 0
6 *1446:B *1447:A2 7.72792e-06
7 *1447:A1 *1447:A2 1.21774e-06
8 *364:16 *1447:A2 1.30667e-05
*RES
1 *1446:ZN *1447:A2 17.4286 
*END

*D_NET *366 0.000448425
*CONN
*I *1481:A1 I *D NAND3_X1
*I *1448:B2 I *D AOI21_X1
*I *1447:ZN O *D NOR2_X1
*CAP
1 *1481:A1 0.000100505
2 *1448:B2 0
3 *1447:ZN 6.04194e-05
4 *366:14 0.000160925
5 *1481:A1 *1427:A 1.88001e-05
6 *1481:A1 *1450:B 1.08378e-05
7 *1481:A1 *400:14 3.27287e-05
8 *366:14 *1427:A 1.42464e-05
9 *1447:A1 *1481:A1 3.19164e-06
10 *1447:A1 *366:14 1.81088e-05
11 *1448:A *366:14 1.91667e-07
12 *364:16 *1481:A1 1.21774e-06
13 *364:16 *366:14 2.72526e-05
*RES
1 *1447:ZN *366:14 22.2857 
2 *366:14 *1448:B2 5 
3 *366:14 *1481:A1 28.1429 
*END

*D_NET *367 0.000277088
*CONN
*I *1450:B I *D OAI211_X1
*I *1448:ZN O *D AOI21_X1
*CAP
1 *1450:B 9.97808e-05
2 *1448:ZN 9.97808e-05
3 *1450:B *1427:A 1.05232e-05
4 *1450:B *369:18 5.52959e-06
5 *1450:B *400:14 9.24246e-06
6 *1447:A1 *1450:B 3.86395e-05
7 *1450:A *1450:B 2.75346e-06
8 *1481:A1 *1450:B 1.08378e-05
*RES
1 *1448:ZN *1450:B 31.9643 
*END

*D_NET *368 0.000152281
*CONN
*I *1450:C1 I *D OAI211_X1
*I *1449:ZN O *D INV_X1
*CAP
1 *1450:C1 7.1976e-05
2 *1449:ZN 7.1976e-05
3 *1450:C1 *369:18 1.88334e-06
4 *1450:C2 *1450:C1 6.44574e-06
*RES
1 *1449:ZN *1450:C1 26.8929 
*END

*D_NET *369 0.000455166
*CONN
*I *1483:A I *D AOI21_X2
*I *1450:ZN O *D OAI211_X1
*CAP
1 *1483:A 0
2 *1450:ZN 0.000172849
3 *369:18 0.000172849
4 *369:18 *1426:A 3.28688e-05
5 *369:18 *1427:A 0
6 *369:18 *1428:A1 0
7 *1450:A *369:18 9.27145e-06
8 *1450:B *369:18 5.52959e-06
9 *1450:C1 *369:18 1.88334e-06
10 *1450:C2 *369:18 0
11 *346:12 *369:18 5.99145e-05
*RES
1 *1450:ZN *369:18 45.5 
2 *369:18 *1483:A 5 
*END

*D_NET *370 9.39485e-05
*CONN
*I *1453:A1 I *D NOR2_X1
*I *1451:ZN O *D INV_X1
*CAP
1 *1453:A1 4.69742e-05
2 *1451:ZN 4.69742e-05
3 *1453:A1 *1453:A2 0
*RES
1 *1451:ZN *1453:A1 14.8929 
*END

*D_NET *371 0.000571495
*CONN
*I *1454:B I *D XNOR2_X1
*I *1453:A2 I *D NOR2_X1
*I *1452:ZN O *D XNOR2_X2
*CAP
1 *1454:B 0
2 *1453:A2 5.90853e-05
3 *1452:ZN 0.000185555
4 *371:12 0.000244641
5 *1453:A2 *1456:A 0
6 *371:12 *1430:B 0
7 *371:12 *1454:A 0
8 *371:12 *1456:A 0
9 *371:12 *1461:A1 0
10 *371:12 *373:10 8.22137e-05
11 *1453:A1 *1453:A2 0
*RES
1 *1452:ZN *371:12 35.4286 
2 *371:12 *1453:A2 21.25 
3 *371:12 *1454:B 5 
*END

*D_NET *372 8.25167e-05
*CONN
*I *1479:A1 I *D OR2_X1
*I *1453:ZN O *D NOR2_X1
*CAP
1 *1479:A1 4.12584e-05
2 *1453:ZN 4.12584e-05
*RES
1 *1453:ZN *1479:A1 13.75 
*END

*D_NET *373 0.000396892
*CONN
*I *1455:A2 I *D NAND2_X1
*I *1456:B I *D XOR2_X1
*I *1454:ZN O *D XNOR2_X1
*CAP
1 *1455:A2 4.4302e-05
2 *1456:B 6.09339e-06
3 *1454:ZN 8.00183e-05
4 *373:10 0.000130414
5 *1455:A2 *1456:A 3.06504e-05
6 *1455:A2 *1478:B 0
7 *1455:A2 *1478:C2 4.79658e-06
8 *1456:B *1456:A 7.72537e-06
9 *373:10 *1456:A 1.06786e-05
10 *371:12 *373:10 8.22137e-05
*RES
1 *1454:ZN *373:10 25.4286 
2 *373:10 *1456:B 5.75 
3 *373:10 *1455:A2 10.1786 
*END

*D_NET *374 0.000108807
*CONN
*I *1478:A I *D OAI211_X1
*I *1455:ZN O *D NAND2_X1
*CAP
1 *1478:A 5.20069e-05
2 *1455:ZN 5.20069e-05
3 *1478:A *1478:B 2.39679e-06
4 *1478:A *1478:C1 2.39679e-06
*RES
1 *1455:ZN *1478:A 15.5714 
*END

*D_NET *375 0.000451505
*CONN
*I *1476:A I *D OAI21_X1
*I *1462:A I *D OAI21_X1
*I *1456:Z O *D XOR2_X1
*CAP
1 *1476:A 7.98683e-05
2 *1462:A 1.38532e-05
3 *1456:Z 7.5259e-05
4 *375:8 0.000168981
5 *1462:A *1462:B1 1.82068e-05
6 *1462:A *1477:A2 0
7 *1476:A *1462:B2 2.76303e-05
8 *1476:A *1476:B1 2.75346e-06
9 *1476:A *1476:B2 6.03476e-06
10 *1476:A *1477:A2 2.25658e-05
11 *1476:A *380:12 1.79155e-05
12 *375:8 *1462:B2 8.58678e-06
13 *375:8 *1476:B2 9.85092e-06
14 *375:8 *1478:B 0
15 *375:8 *1478:C2 0
*RES
1 *1456:Z *375:8 19.0714 
2 *375:8 *1462:A 11.75 
3 *375:8 *1476:A 20.9643 
*END

*D_NET *376 0.000316887
*CONN
*I *1459:A1 I *D NOR2_X1
*I *1457:ZN O *D INV_X1
*CAP
1 *1459:A1 4.60558e-05
2 *1457:ZN 4.60558e-05
3 *1459:A1 *1457:A 0.000171595
4 *1459:A1 *1458:B 1.71706e-05
5 *1459:A1 *1460:B 3.60095e-05
6 *1459:A1 *1463:A 0
*RES
1 *1457:ZN *1459:A1 29.75 
*END

*D_NET *377 0.000514459
*CONN
*I *1460:B I *D XNOR2_X1
*I *1459:A2 I *D NOR2_X1
*I *1458:ZN O *D XNOR2_X1
*CAP
1 *1460:B 4.33835e-05
2 *1459:A2 1.16506e-05
3 *1458:ZN 2.93141e-05
4 *377:8 8.43481e-05
5 *1459:A2 *1460:A 0
6 *1460:B *1457:A 4.92317e-06
7 *1460:B *1458:B 0.000120658
8 *1460:B *1460:A 1.78501e-05
9 *1460:B *379:8 8.43215e-07
10 *377:8 *1457:A 3.1286e-05
11 *377:8 *1458:B 0.000134192
12 *1459:A1 *1460:B 3.60095e-05
*RES
1 *1458:ZN *377:8 17.0357 
2 *377:8 *1459:A2 11.25 
3 *377:8 *1460:B 18.6071 
*END

*D_NET *378 0.000321144
*CONN
*I *1462:B1 I *D OAI21_X1
*I *1459:ZN O *D NOR2_X1
*CAP
1 *1462:B1 0.000151469
2 *1459:ZN 0.000151469
3 *1462:B1 *379:8 0
4 *1462:A *1462:B1 1.82068e-05
*RES
1 *1459:ZN *1462:B1 25.1071 
*END

*D_NET *379 0.000210418
*CONN
*I *1476:B1 I *D OAI21_X1
*I *1461:A2 I *D AND2_X1
*I *1460:ZN O *D XNOR2_X1
*CAP
1 *1476:B1 4.98331e-05
2 *1461:A2 0
3 *1460:ZN 4.4952e-05
4 *379:8 9.47851e-05
5 *1476:B1 *1463:A 4.4683e-06
6 *1476:B1 *380:12 7.90853e-06
7 *379:8 *1458:B 4.15825e-06
8 *379:8 *1463:A 7.16188e-07
9 *379:8 *1477:A2 0
10 *1460:B *379:8 8.43215e-07
11 *1462:B1 *379:8 0
12 *1476:A *1476:B1 2.75346e-06
*RES
1 *1460:ZN *379:8 9.67857 
2 *379:8 *1461:A2 5 
3 *379:8 *1476:B1 10.75 
*END

*D_NET *380 0.000444437
*CONN
*I *1477:A1 I *D OR2_X1
*I *1462:B2 I *D OAI21_X1
*I *1461:ZN O *D AND2_X1
*CAP
1 *1477:A1 0
2 *1462:B2 5.47269e-05
3 *1461:ZN 0.000100195
4 *380:12 0.000154922
5 *1462:B2 *1478:B 6.50581e-06
6 *1462:B2 *1478:C2 2.17083e-05
7 *380:12 *1463:A 3.41146e-05
8 *380:12 *1477:A2 3.30047e-06
9 *380:12 *1478:C1 0
10 *380:12 *1478:C2 6.92245e-06
11 *1476:A *1462:B2 2.76303e-05
12 *1476:A *380:12 1.79155e-05
13 *1476:B1 *380:12 7.90853e-06
14 *375:8 *1462:B2 8.58678e-06
*RES
1 *1461:ZN *380:12 22.1429 
2 *380:12 *1462:B2 18.3929 
3 *380:12 *1477:A1 10 
*END

*D_NET *381 0.000202436
*CONN
*I *1478:B I *D OAI211_X1
*I *1462:ZN O *D OAI21_X1
*CAP
1 *1478:B 5.86532e-05
2 *1462:ZN 5.86532e-05
3 *1478:B *1478:C1 4.12459e-06
4 *1478:B *1478:C2 7.21028e-05
5 *1455:A2 *1478:B 0
6 *1462:B2 *1478:B 6.50581e-06
7 *1478:A *1478:B 2.39679e-06
8 *375:8 *1478:B 0
*RES
1 *1462:ZN *1478:B 27.3929 
*END

*D_NET *382 0.000112719
*CONN
*I *1465:A1 I *D NOR2_X1
*I *1463:ZN O *D INV_X1
*CAP
1 *1465:A1 4.73856e-05
2 *1463:ZN 4.73856e-05
3 *1465:A1 *1465:A2 2.23871e-06
4 *1465:A1 *1466:A 1.57087e-05
*RES
1 *1463:ZN *1465:A1 15.3571 
*END

*D_NET *383 0.00035308
*CONN
*I *1466:B I *D XNOR2_X1
*I *1465:A2 I *D NOR2_X1
*I *1464:ZN O *D XNOR2_X1
*CAP
1 *1466:B 0
2 *1465:A2 6.31678e-05
3 *1464:ZN 0.00010993
4 *383:10 0.000173098
5 *1465:A2 *1463:A 0
6 *383:10 *1464:A 2.24822e-06
7 *383:10 *1464:B 2.39679e-06
8 *1465:A1 *1465:A2 2.23871e-06
*RES
1 *1464:ZN *383:10 21.1786 
2 *383:10 *1465:A2 16.25 
3 *383:10 *1466:B 10 
*END

*D_NET *384 0.000379282
*CONN
*I *1475:A1 I *D NOR3_X1
*I *1465:ZN O *D NOR2_X1
*CAP
1 *1475:A1 0.000123999
2 *1465:ZN 0.000123999
3 *1475:A1 *1467:A2 3.09143e-06
4 *1475:A1 *1475:A2 0
5 *1475:A1 *1478:C1 6.99525e-06
6 *1475:A1 *385:10 0
7 *1475:A1 *393:8 0.000121198
*RES
1 *1465:ZN *1475:A1 35.1071 
*END

*D_NET *385 0.000400437
*CONN
*I *1474:A2 I *D AND2_X1
*I *1467:A2 I *D NOR2_X1
*I *1466:ZN O *D XNOR2_X1
*CAP
1 *1474:A2 5.82536e-06
2 *1467:A2 3.49967e-05
3 *1466:ZN 0.000118657
4 *385:10 0.000159479
5 *1467:A2 *1467:A1 5.62244e-05
6 *1467:A2 *1474:A1 0
7 *1467:A2 *393:8 9.55318e-06
8 *1474:A2 *1474:A1 2.39679e-06
9 *385:10 *1466:A 1.02133e-05
10 *1475:A1 *1467:A2 3.09143e-06
11 *1475:A1 *385:10 0
*RES
1 *1466:ZN *385:10 17.4286 
2 *385:10 *1467:A2 20.0714 
3 *385:10 *1474:A2 5.75 
*END

*D_NET *386 0.000497476
*CONN
*I *1473:A1 I *D NOR2_X1
*I *1588:A2 I *D NOR4_X1
*I *1467:ZN O *D NOR2_X1
*CAP
1 *1473:A1 0
2 *1588:A2 8.78749e-05
3 *1467:ZN 9.95541e-05
4 *386:10 0.000187429
5 *1588:A2 *1474:A1 2.73345e-05
6 *1588:A2 *1588:A1 2.39679e-06
7 *1588:A2 *1588:A3 2.39679e-06
8 *1588:A2 *1588:A4 5.48932e-05
9 *386:10 *1471:A 0
10 *386:10 *1474:A1 3.55965e-05
*RES
1 *1467:ZN *386:10 21.6429 
2 *386:10 *1588:A2 21.5 
3 *386:10 *1473:A1 10 
*END

*D_NET *387 0.000295361
*CONN
*I *1470:A1 I *D NOR2_X1
*I *1468:ZN O *D INV_X1
*CAP
1 *1470:A1 4.84305e-05
2 *1468:ZN 4.84305e-05
3 *1470:A1 *1470:A2 7.23153e-05
4 *1470:A1 *1587:A1 3.60121e-05
5 *1470:A1 *388:10 9.0173e-05
*RES
1 *1468:ZN *1470:A1 29.1429 
*END

*D_NET *388 0.000622803
*CONN
*I *1471:B I *D XNOR2_X1
*I *1470:A2 I *D NOR2_X1
*I *1469:ZN O *D XNOR2_X1
*CAP
1 *1471:B 0
2 *1470:A2 2.5327e-05
3 *1469:ZN 0.000119646
4 *388:10 0.000144973
5 *1470:A2 *1472:A 6.32461e-06
6 *1470:A2 *1587:A1 1.90574e-06
7 *1470:A2 *2174:A 1.32348e-05
8 *1470:A2 *390:8 9.52105e-05
9 *388:10 *1468:A 2.48863e-05
10 *388:10 *1469:A 1.1025e-05
11 *388:10 *1469:B 0
12 *388:10 *390:8 1.77822e-05
13 *1470:A1 *1470:A2 7.23153e-05
14 *1470:A1 *388:10 9.0173e-05
*RES
1 *1469:ZN *388:10 25.2143 
2 *388:10 *1470:A2 16.25 
3 *388:10 *1471:B 10 
*END

*D_NET *389 0.000142598
*CONN
*I *1472:A I *D AOI21_X1
*I *1470:ZN O *D NOR2_X1
*CAP
1 *1472:A 2.02262e-05
2 *1470:ZN 2.02262e-05
3 *1472:A *1587:A1 8.19658e-05
4 *1472:A *390:8 1.3855e-05
5 *1470:A2 *1472:A 6.32461e-06
*RES
1 *1470:ZN *1472:A 24.3214 
*END

*D_NET *390 0.000810093
*CONN
*I *1472:B1 I *D AOI21_X1
*I *1587:A2 I *D NOR2_X1
*I *1586:A2 I *D NAND2_X1
*I *1471:ZN O *D XNOR2_X1
*CAP
1 *1472:B1 1.17969e-05
2 *1587:A2 0
3 *1586:A2 4.06918e-05
4 *1471:ZN 3.51437e-05
5 *390:14 8.18606e-05
6 *390:8 8.81096e-05
7 *1472:B1 *2174:A 0
8 *1586:A2 *1472:B2 6.78878e-05
9 *1586:A2 *1586:A1 8.43215e-07
10 *1586:A2 *1587:A1 2.52965e-06
11 *1586:A2 *1589:A1 2.16072e-07
12 *1586:A2 *1589:A2 0
13 *1586:A2 *2191:B 7.19036e-06
14 *390:8 *1468:A 0.000185383
15 *390:8 *1587:A1 1.90574e-06
16 *390:14 *1468:A 0.000120658
17 *390:14 *1472:B2 2.06614e-05
18 *390:14 *1586:A1 1.18589e-06
19 *390:14 *1587:A1 6.87807e-06
20 *390:14 *2191:B 1.0303e-05
21 *1470:A2 *390:8 9.52105e-05
22 *1472:A *390:8 1.3855e-05
23 *388:10 *390:8 1.77822e-05
*RES
1 *1471:ZN *390:8 19.75 
2 *390:8 *390:14 13.1071 
3 *390:14 *1586:A2 20.1429 
4 *390:14 *1587:A2 5 
5 *390:8 *1472:B1 11.75 
*END

*D_NET *391 0.000180669
*CONN
*I *1473:A2 I *D NOR2_X1
*I *1472:ZN O *D AOI21_X1
*CAP
1 *1473:A2 9.03344e-05
2 *1472:ZN 9.03344e-05
3 *1473:A2 *1471:A 0
4 *1473:A2 *1588:A4 0
5 *1473:A2 *2174:A 0
*RES
1 *1472:ZN *1473:A2 18.75 
*END

*D_NET *392 7.61222e-05
*CONN
*I *1475:A2 I *D NOR3_X1
*I *1473:ZN O *D NOR2_X1
*CAP
1 *1475:A2 3.41984e-05
2 *1473:ZN 3.41984e-05
3 *1475:A2 *1471:A 0
4 *1475:A2 *1475:A3 7.72537e-06
5 *1475:A1 *1475:A2 0
*RES
1 *1473:ZN *1475:A2 13.25 
*END

*D_NET *393 0.000749368
*CONN
*I *1475:A3 I *D NOR3_X1
*I *1588:A3 I *D NOR4_X1
*I *1474:ZN O *D AND2_X1
*CAP
1 *1475:A3 6.09339e-06
2 *1588:A3 9.80333e-05
3 *1474:ZN 7.92309e-05
4 *393:8 0.000183358
5 *1588:A3 *1455:A1 2.99872e-05
6 *1588:A3 *1474:A1 1.61946e-05
7 *1588:A3 *1478:C1 3.01743e-05
8 *1588:A3 *1588:A1 3.70481e-05
9 *1588:A3 *1588:A4 0
10 *1588:A3 *1589:A2 2.37093e-06
11 *393:8 *1467:A1 8.11741e-05
12 *393:8 *1474:A1 3.99073e-05
13 *393:8 *1478:C1 4.92317e-06
14 *1467:A2 *393:8 9.55318e-06
15 *1475:A1 *393:8 0.000121198
16 *1475:A2 *1475:A3 7.72537e-06
17 *1588:A2 *1588:A3 2.39679e-06
*RES
1 *1474:ZN *393:8 24.5 
2 *393:8 *1588:A3 23.8214 
3 *393:8 *1475:A3 10.75 
*END

*D_NET *394 0.00051923
*CONN
*I *1478:C1 I *D OAI211_X1
*I *1475:ZN O *D NOR3_X1
*CAP
1 *1478:C1 0.000149676
2 *1475:ZN 0.000149676
3 *1478:C1 *1455:A1 0.0001066
4 *1478:C1 *1478:C2 6.46634e-05
5 *1475:A1 *1478:C1 6.99525e-06
6 *1478:A *1478:C1 2.39679e-06
7 *1478:B *1478:C1 4.12459e-06
8 *1588:A3 *1478:C1 3.01743e-05
9 *380:12 *1478:C1 0
10 *393:8 *1478:C1 4.92317e-06
*RES
1 *1475:ZN *1478:C1 44.5714 
*END

*D_NET *395 0.000109946
*CONN
*I *1477:A2 I *D OR2_X1
*I *1476:ZN O *D OAI21_X1
*CAP
1 *1477:A2 4.20397e-05
2 *1476:ZN 4.20397e-05
3 *1462:A *1477:A2 0
4 *1476:A *1477:A2 2.25658e-05
5 *379:8 *1477:A2 0
6 *380:12 *1477:A2 3.30047e-06
*RES
1 *1476:ZN *1477:A2 14.6786 
*END

*D_NET *396 0.000647152
*CONN
*I *1588:A1 I *D NOR4_X1
*I *1478:C2 I *D OAI211_X1
*I *1477:ZN O *D OR2_X1
*CAP
1 *1588:A1 8.29476e-05
2 *1478:C2 0.000123934
3 *1477:ZN 9.69745e-06
4 *396:6 0.000216579
5 *1478:C2 *1455:A1 4.76443e-07
6 *1478:C2 *1479:A2 2.61814e-06
7 *1588:A1 *1588:A4 2.16072e-07
8 *1588:A1 *1589:A2 1.04584e-06
9 *1455:A2 *1478:C2 4.79658e-06
10 *1462:B2 *1478:C2 2.17083e-05
11 *1478:B *1478:C2 7.21028e-05
12 *1478:C1 *1478:C2 6.46634e-05
13 *1588:A2 *1588:A1 2.39679e-06
14 *1588:A3 *1588:A1 3.70481e-05
15 *375:8 *1478:C2 0
16 *380:12 *1478:C2 6.92245e-06
*RES
1 *1477:ZN *396:6 5.75 
2 *396:6 *1478:C2 33.4286 
3 *396:6 *1588:A1 13.6786 
*END

*D_NET *397 0.000463271
*CONN
*I *1479:A2 I *D OR2_X1
*I *1478:ZN O *D OAI211_X1
*CAP
1 *1479:A2 0.000124373
2 *1478:ZN 0.000124373
3 *1479:A2 *1428:A1 6.97608e-05
4 *1479:A2 *1455:A1 5.59765e-05
5 *1479:A2 *1456:A 7.60055e-05
6 *1479:A2 *1483:B1 0
7 *1479:A2 *2191:A 1.0164e-05
8 *1478:C2 *1479:A2 2.61814e-06
*RES
1 *1478:ZN *1479:A2 38.8929 
*END

*D_NET *398 0.000355721
*CONN
*I *1483:B1 I *D AOI21_X2
*I *1479:ZN O *D OR2_X1
*CAP
1 *1483:B1 0.000176445
2 *1479:ZN 0.000176445
3 *1483:B1 *1428:A1 0
4 *1483:B1 *2192:A 2.83077e-06
5 *1479:A2 *1483:B1 0
*RES
1 *1479:ZN *1483:B1 37.75 
*END

*D_NET *399 0.000168717
*CONN
*I *1481:A3 I *D NAND3_X1
*I *1480:Z O *D XOR2_X1
*CAP
1 *1481:A3 8.29817e-05
2 *1480:Z 8.29817e-05
3 *1480:B *1481:A3 0
4 *1481:A2 *1481:A3 2.75346e-06
*RES
1 *1480:Z *1481:A3 18.5714 
*END

*D_NET *400 0.00123353
*CONN
*I *1590:A2 I *D NOR3_X4
*I *1482:A I *D INV_X1
*I *1481:ZN O *D NAND3_X1
*CAP
1 *1590:A2 0.000166208
2 *1482:A 0
3 *1481:ZN 0.000251894
4 *400:14 0.000418102
5 *1590:A2 *1483:B2 1.61523e-05
6 *1590:A2 *1484:C2 2.39601e-05
7 *1590:A2 *2207:A 1.34605e-05
8 *400:14 *1426:A 0
9 *400:14 *1429:A 1.25215e-05
10 *400:14 *1451:A 0
11 *400:14 *1484:C2 0
12 *1429:B *400:14 5.06354e-05
13 *1447:A1 *400:14 0.000107663
14 *1448:A *400:14 5.16467e-06
15 *1450:B *400:14 9.24246e-06
16 *1481:A1 *400:14 3.27287e-05
17 *346:12 *400:14 3.56223e-05
18 *348:8 *400:14 9.0173e-05
*RES
1 *1481:ZN *400:14 48.2857 
2 *400:14 *1482:A 5 
3 *400:14 *1590:A2 23.9643 
*END

*D_NET *401 0.000113868
*CONN
*I *1483:B2 I *D AOI21_X2
*I *1482:ZN O *D INV_X1
*CAP
1 *1483:B2 4.50455e-05
2 *1482:ZN 4.50455e-05
3 *1483:B2 *1484:C2 7.62442e-06
4 *1590:A2 *1483:B2 1.61523e-05
*RES
1 *1482:ZN *1483:B2 15.5714 
*END

*D_NET *402 0.00059962
*CONN
*I *1484:C2 I *D OAI211_X2
*I *1483:ZN O *D AOI21_X2
*CAP
1 *1484:C2 0.000264474
2 *1483:ZN 0.000264474
3 *1484:C2 *1590:A3 3.90865e-05
4 *1484:C2 *2193:A 0
5 *1483:B2 *1484:C2 7.62442e-06
6 *1590:A1 *1484:C2 0
7 *1590:A2 *1484:C2 2.39601e-05
8 *2193:B *1484:C2 0
9 *309:10 *1484:C2 0
10 *400:14 *1484:C2 0
*RES
1 *1483:ZN *1484:C2 39.2857 
*END

*D_NET *403 0.000525524
*CONN
*I *1592:A1 I *D OR2_X1
*I *1605:A I *D AOI21_X4
*I *1484:ZN O *D OAI211_X2
*CAP
1 *1592:A1 3.79533e-05
2 *1605:A 2.61744e-05
3 *1484:ZN 0.000144201
4 *403:10 0.000208328
5 *1592:A1 *1585:C1 0
6 *1592:A1 *1592:A2 6.11142e-05
7 *1592:A1 *524:8 1.0794e-06
8 *1605:A *1585:C1 3.19164e-06
9 *403:10 *1485:A 0
10 *403:10 *1592:A2 5.73957e-06
11 *403:10 *1605:B2 3.27287e-05
12 *1590:A1 *403:10 5.01336e-06
*RES
1 *1484:ZN *403:10 25.8929 
2 *403:10 *1605:A 12.8571 
3 *403:10 *1592:A1 15.75 
*END

*D_NET *404 0.000785169
*CONN
*I *1486:B I *D XNOR2_X1
*I *1508:C2 I *D OAI221_X1
*I *1485:ZN O *D XNOR2_X1
*CAP
1 *1486:B 0.000117906
2 *1508:C2 3.74726e-05
3 *1485:ZN 0.000123351
4 *404:8 0.000278729
5 *1486:B *1488:A 0
6 *1486:B *1488:B 0
7 *1486:B *1507:A 1.88906e-05
8 *1486:B *1508:C1 7.02617e-06
9 *1486:B *1509:A 0
10 *1486:B *1585:A 0
11 *1486:B *1240:27 1.61489e-05
12 *1508:C2 *1508:B1 5.52692e-06
13 *1508:C2 *1508:C1 1.21774e-06
14 *1508:C2 *1509:A 7.72792e-06
15 *1508:C2 *503:8 8.19658e-05
16 *404:8 *1485:B 9.22998e-06
17 *404:8 *1585:B 2.54978e-06
18 *404:8 *503:8 7.74262e-05
*RES
1 *1485:ZN *404:8 25.1786 
2 *404:8 *1508:C2 15.5714 
3 *404:8 *1486:B 23.4286 
*END

*D_NET *405 0.000186231
*CONN
*I *1487:A2 I *D NAND2_X1
*I *1488:B I *D XOR2_X1
*I *1486:ZN O *D XNOR2_X1
*CAP
1 *1487:A2 3.23912e-05
2 *1488:B 8.59408e-05
3 *1486:ZN 5.35497e-05
4 *1487:A2 *1487:A1 6.0887e-06
5 *1488:B *1488:A 8.26038e-06
6 *1488:B *1585:A 0
7 *1486:B *1488:B 0
*RES
1 *1486:ZN *1488:B 15.8929 
2 *1488:B *1487:A2 14.2143 
*END

*D_NET *406 0.000369605
*CONN
*I *1585:A I *D OAI211_X1
*I *1487:ZN O *D NAND2_X1
*CAP
1 *1585:A 0.000177198
2 *1487:ZN 0.000177198
3 *1585:A *1585:B 7.72537e-06
4 *1585:A *1585:C1 2.75346e-06
5 *1585:A *1585:C2 4.72932e-06
6 *1486:B *1585:A 0
7 *1488:B *1585:A 0
*RES
1 *1487:ZN *1585:A 28.1429 
*END

*D_NET *407 0.000511273
*CONN
*I *1493:A I *D OAI21_X1
*I *1505:A I *D OAI21_X1
*I *1488:Z O *D XOR2_X1
*CAP
1 *1493:A 5.49266e-06
2 *1505:A 5.51261e-05
3 *1488:Z 0.00015593
4 *407:12 0.000216549
5 *1493:A *1493:B1 2.52965e-06
6 *1493:A *1493:B2 7.16188e-07
7 *1505:A *1488:A 0
8 *1505:A *1493:B1 1.72405e-05
9 *1505:A *1493:B2 4.0925e-07
10 *1505:A *1935:B 2.1335e-05
11 *1505:A *410:12 7.72792e-06
12 *407:12 *1488:A 0
13 *407:12 *1493:B1 2.51997e-05
14 *407:12 *1935:B 3.01743e-06
*RES
1 *1488:Z *407:12 26.8571 
2 *407:12 *1505:A 17.1071 
3 *407:12 *1493:A 10.75 
*END

*D_NET *408 0.000296462
*CONN
*I *1490:A2 I *D AND2_X1
*I *1491:B I *D XOR2_X1
*I *1489:Z O *D XOR2_X1
*CAP
1 *1490:A2 0
2 *1491:B 2.38931e-05
3 *1489:Z 9.15703e-05
4 *408:10 0.000115463
5 *1491:B *1488:A 0
6 *1491:B *1489:A 0
7 *1491:B *1490:A1 5.62244e-05
8 *408:10 *1488:A 0
9 *408:10 *1489:A 0
10 *408:10 *1489:B 0
11 *408:10 *1240:27 9.31049e-06
*RES
1 *1489:Z *408:10 19.9286 
2 *408:10 *1491:B 13.6429 
3 *408:10 *1490:A2 10 
*END

*D_NET *409 0.000258862
*CONN
*I *1493:B1 I *D OAI21_X1
*I *1490:ZN O *D AND2_X1
*CAP
1 *1493:B1 0.000101864
2 *1490:ZN 0.000101864
3 *1493:B1 *1935:B 1.0164e-05
4 *1493:B1 *1240:27 0
5 *1493:A *1493:B1 2.52965e-06
6 *1505:A *1493:B1 1.72405e-05
7 *407:12 *1493:B1 2.51997e-05
*RES
1 *1490:ZN *1493:B1 31.0357 
*END

*D_NET *410 0.000401779
*CONN
*I *1505:B1 I *D OAI21_X1
*I *1492:A2 I *D AND2_X1
*I *1491:Z O *D XOR2_X1
*CAP
1 *1505:B1 0
2 *1492:A2 2.66813e-05
3 *1491:Z 9.34285e-05
4 *410:12 0.00012011
5 *1492:A2 *1505:B2 2.67697e-05
6 *1492:A2 *1935:B 6.03486e-06
7 *410:12 *1488:A 0
8 *410:12 *1490:A1 7.14654e-06
9 *410:12 *1492:A1 0
10 *410:12 *1505:B2 8.43215e-07
11 *1505:A *410:12 7.72792e-06
12 *99:147 *1492:A2 3.15734e-05
13 *99:149 *410:12 8.14641e-05
*RES
1 *1491:Z *410:12 26.7143 
2 *410:12 *1492:A2 20 
3 *410:12 *1505:B1 5 
*END

*D_NET *411 0.000378337
*CONN
*I *1506:A1 I *D OR2_X1
*I *1493:B2 I *D OAI21_X1
*I *1492:ZN O *D AND2_X1
*CAP
1 *1506:A1 0
2 *1493:B2 8.30848e-05
3 *1492:ZN 8.05351e-05
4 *411:8 0.00016362
5 *1493:B2 *1505:B2 0
6 *1493:B2 *1506:A2 4.16642e-05
7 *1493:B2 *1508:A 8.30738e-06
8 *411:8 *1506:A2 0
9 *1493:A *1493:B2 7.16188e-07
10 *1505:A *1493:B2 4.0925e-07
*RES
1 *1492:ZN *411:8 13.25 
2 *411:8 *1493:B2 16.1429 
3 *411:8 *1506:A1 5 
*END

*D_NET *412 0.000312341
*CONN
*I *1508:A I *D OAI221_X1
*I *1493:ZN O *D OAI21_X1
*CAP
1 *1508:A 0.000140327
2 *1493:ZN 0.000140327
3 *1508:A *425:12 0
4 *1508:A *503:8 2.33807e-05
5 *1493:B2 *1508:A 8.30738e-06
*RES
1 *1493:ZN *1508:A 34.9286 
*END

*D_NET *413 0.000498655
*CONN
*I *1503:B1 I *D OAI21_X1
*I *1495:B I *D XNOR2_X1
*I *1494:ZN O *D XNOR2_X1
*CAP
1 *1503:B1 4.26272e-05
2 *1495:B 0
3 *1494:ZN 0.000113053
4 *413:10 0.00015568
5 *1503:B1 *1503:A 2.39679e-06
6 *1503:B1 *1503:B2 1.87094e-05
7 *1503:B1 *1504:B2 0.000102626
8 *413:10 *1495:A 1.80259e-05
9 *413:10 *1496:A 0
10 *413:10 *1503:B2 3.09682e-06
11 *413:10 *1504:B2 4.24402e-05
*RES
1 *1494:ZN *413:10 22.0357 
2 *413:10 *1495:B 10 
3 *413:10 *1503:B1 16.9286 
*END

*D_NET *414 0.000390409
*CONN
*I *1504:B1 I *D AOI21_X1
*I *1496:B I *D XOR2_X1
*I *1495:ZN O *D XNOR2_X1
*CAP
1 *1504:B1 1.3503e-05
2 *1496:B 5.89987e-05
3 *1495:ZN 8.29043e-05
4 *414:10 0.000155406
5 *1496:B *1511:A1 0
6 *1504:B1 *1504:B2 8.43215e-07
7 *1504:B1 *1511:A1 0
8 *414:10 *1496:A 0
9 *414:10 *1504:A 6.66836e-05
10 *414:10 *1504:B2 1.20697e-05
*RES
1 *1495:ZN *414:10 26.7857 
2 *414:10 *1496:B 10.6786 
3 *414:10 *1504:B1 6.25 
*END

*D_NET *415 0.000534268
*CONN
*I *1512:A1 I *D NAND2_X1
*I *1501:A I *D OAI21_X1
*I *1496:Z O *D XOR2_X1
*CAP
1 *1512:A1 9.8231e-05
2 *1501:A 0.000140446
3 *1496:Z 0
4 *415:6 0.000238677
5 *1501:A *1494:B 8.41616e-06
6 *1501:A *1496:A 2.76303e-05
7 *1501:A *1501:B1 2.39679e-06
8 *1501:A *1503:A 1.66026e-05
9 *1512:A1 *1494:B 1.86875e-06
10 *1512:A1 *1511:A1 0
11 *1512:A1 *1512:A2 0
12 *1512:A1 *1585:C1 0
*RES
1 *1496:Z *415:6 10 
2 *415:6 *1501:A 26.4643 
3 *415:6 *1512:A1 19.9286 
*END

*D_NET *416 0.00028097
*CONN
*I *1498:A2 I *D AND2_X1
*I *1499:B I *D XOR2_X1
*I *1497:Z O *D XOR2_X1
*CAP
1 *1498:A2 4.73762e-05
2 *1499:B 0
3 *1497:Z 3.14427e-05
4 *416:10 7.88189e-05
5 *1498:A2 *1498:A1 5.43615e-05
6 *416:10 *1497:B 0
7 *416:10 *1237:25 6.89712e-05
*RES
1 *1497:Z *416:10 19.3214 
2 *416:10 *1499:B 5 
3 *416:10 *1498:A2 10.75 
*END

*D_NET *417 0.000198636
*CONN
*I *1501:B1 I *D OAI21_X1
*I *1498:ZN O *D AND2_X1
*CAP
1 *1501:B1 7.31886e-05
2 *1498:ZN 7.31886e-05
3 *1501:B1 *1500:A1 2.52511e-05
4 *1501:B1 *511:8 2.46104e-05
5 *1501:A *1501:B1 2.39679e-06
*RES
1 *1498:ZN *1501:B1 29.4286 
*END

*D_NET *418 0.000391466
*CONN
*I *1500:A2 I *D AND2_X1
*I *1510:A2 I *D NOR2_X1
*I *1499:Z O *D XOR2_X1
*CAP
1 *1500:A2 1.27191e-05
2 *1510:A2 4.37299e-05
3 *1499:Z 0.000139284
4 *418:12 0.000195733
5 *1510:A2 *511:8 0
6 *418:12 *1497:B 0
7 *418:12 *1500:A1 0
*RES
1 *1499:Z *418:12 30.0357 
2 *418:12 *1510:A2 19.8929 
3 *418:12 *1500:A2 6.25 
*END

*D_NET *419 0.000343039
*CONN
*I *1511:A2 I *D NOR3_X1
*I *1501:B2 I *D OAI21_X1
*I *1500:ZN O *D AND2_X1
*CAP
1 *1511:A2 1.24138e-05
2 *1501:B2 5.85759e-05
3 *1500:ZN 4.50481e-05
4 *419:10 0.000116038
5 *1501:B2 *511:8 3.87635e-05
6 *1501:B2 *524:10 2.83702e-05
7 *1511:A2 *511:8 4.80515e-06
8 *1511:A2 *524:10 4.17885e-06
9 *419:10 *1511:A3 3.48459e-05
*RES
1 *1500:ZN *419:10 15.1786 
2 *419:10 *1501:B2 19.0714 
3 *419:10 *1511:A2 11.6071 
*END

*D_NET *420 0.000310993
*CONN
*I *1503:A I *D OAI21_X1
*I *1501:ZN O *D OAI21_X1
*CAP
1 *1503:A 0.000145997
2 *1501:ZN 0.000145997
3 *1501:A *1503:A 1.66026e-05
4 *1503:B1 *1503:A 2.39679e-06
*RES
1 *1501:ZN *1503:A 24.6786 
*END

*D_NET *421 0.00018196
*CONN
*I *1503:B2 I *D OAI21_X1
*I *1502:ZN O *D INV_X1
*CAP
1 *1503:B2 8.00767e-05
2 *1502:ZN 8.00767e-05
3 *1503:B2 *1495:A 0
4 *1503:B2 *503:8 0
5 *1503:B1 *1503:B2 1.87094e-05
6 *413:10 *1503:B2 3.09682e-06
*RES
1 *1502:ZN *1503:B2 28.75 
*END

*D_NET *422 0.000311313
*CONN
*I *1504:A I *D AOI21_X1
*I *1503:ZN O *D OAI21_X1
*CAP
1 *1504:A 4.39491e-05
2 *1503:ZN 4.39491e-05
3 *1504:A *1496:A 0
4 *1504:A *1504:B2 0.000145606
5 *1504:A *1508:B1 1.11258e-05
6 *414:10 *1504:A 6.66836e-05
*RES
1 *1503:ZN *1504:A 29.75 
*END

*D_NET *423 0.00035096
*CONN
*I *1508:B1 I *D OAI221_X1
*I *1504:ZN O *D AOI21_X1
*CAP
1 *1508:B1 0.00011413
2 *1504:ZN 0.00011413
3 *1508:B1 *1509:A 6.91187e-06
4 *1508:B1 *1511:A1 9.6739e-05
5 *1508:B1 *425:12 2.39679e-06
6 *1504:A *1508:B1 1.11258e-05
7 *1508:C2 *1508:B1 5.52692e-06
*RES
1 *1504:ZN *1508:B1 34.25 
*END

*D_NET *424 0.000156229
*CONN
*I *1506:A2 I *D OR2_X1
*I *1505:ZN O *D OAI21_X1
*CAP
1 *1506:A2 5.72822e-05
2 *1505:ZN 5.72822e-05
3 *1493:B2 *1506:A2 4.16642e-05
4 *411:8 *1506:A2 0
*RES
1 *1505:ZN *1506:A2 16.7143 
*END

*D_NET *425 0.000799599
*CONN
*I *1508:B2 I *D OAI221_X1
*I *1511:A1 I *D NOR3_X1
*I *1506:ZN O *D OR2_X1
*CAP
1 *1508:B2 0
2 *1511:A1 0.000220113
3 *1506:ZN 9.89556e-05
4 *425:12 0.000319068
5 *1511:A1 *1494:B 2.80752e-05
6 *1511:A1 *1511:A3 8.43215e-07
7 *1511:A1 *1512:A2 3.3408e-05
8 *425:12 *1508:C1 0
9 *425:12 *1935:B 0
10 *425:12 *503:8 0
11 *1496:B *1511:A1 0
12 *1504:B1 *1511:A1 0
13 *1508:A *425:12 0
14 *1508:B1 *1511:A1 9.6739e-05
15 *1508:B1 *425:12 2.39679e-06
16 *1512:A1 *1511:A1 0
*RES
1 *1506:ZN *425:12 25.1071 
2 *425:12 *1511:A1 29.75 
3 *425:12 *1508:B2 5 
*END

*D_NET *426 0.00012139
*CONN
*I *1508:C1 I *D OAI221_X1
*I *1507:ZN O *D INV_X1
*CAP
1 *1508:C1 5.65732e-05
2 *1507:ZN 5.65732e-05
3 *1486:B *1508:C1 7.02617e-06
4 *1508:C2 *1508:C1 1.21774e-06
5 *425:12 *1508:C1 0
*RES
1 *1507:ZN *1508:C1 16.0357 
*END

*D_NET *427 0.000189433
*CONN
*I *1509:A I *D INV_X1
*I *1508:ZN O *D OAI221_X1
*CAP
1 *1509:A 8.46971e-05
2 *1508:ZN 8.46971e-05
3 *1509:A *503:8 5.39877e-06
4 *1486:B *1509:A 0
5 *1508:B1 *1509:A 6.91187e-06
6 *1508:C2 *1509:A 7.72792e-06
*RES
1 *1508:ZN *1509:A 29.25 
*END

*D_NET *428 0.000125291
*CONN
*I *1585:B I *D OAI211_X1
*I *1509:ZN O *D INV_X1
*CAP
1 *1585:B 5.39367e-05
2 *1509:ZN 5.39367e-05
3 *1585:B *503:8 7.14239e-06
4 *1585:A *1585:B 7.72537e-06
5 *404:8 *1585:B 2.54978e-06
*RES
1 *1509:ZN *1585:B 25.75 
*END

*D_NET *429 0.000194173
*CONN
*I *1511:A3 I *D NOR3_X1
*I *1510:ZN O *D NOR2_X1
*CAP
1 *1511:A3 7.92418e-05
2 *1510:ZN 7.92418e-05
3 *1511:A1 *1511:A3 8.43215e-07
4 *419:10 *1511:A3 3.48459e-05
*RES
1 *1510:ZN *1511:A3 17.9643 
*END

*D_NET *430 0.00012968
*CONN
*I *1512:A2 I *D NAND2_X1
*I *1511:ZN O *D NOR3_X1
*CAP
1 *1512:A2 4.8136e-05
2 *1511:ZN 4.8136e-05
3 *1511:A1 *1512:A2 3.3408e-05
4 *1512:A1 *1512:A2 0
*RES
1 *1511:ZN *1512:A2 15.5357 
*END

*D_NET *431 0.00049829
*CONN
*I *1585:C1 I *D OAI211_X1
*I *1512:ZN O *D NAND2_X1
*CAP
1 *1585:C1 0.000216506
2 *1512:ZN 0.000216506
3 *1585:C1 *1585:C2 1.21774e-06
4 *1585:C1 *1592:A2 0
5 *1585:C1 *1605:B1 0
6 *1585:C1 *504:8 0
7 *1585:C1 *524:10 5.81144e-05
8 *1512:A1 *1585:C1 0
9 *1585:A *1585:C1 2.75346e-06
10 *1592:A1 *1585:C1 0
11 *1605:A *1585:C1 3.19164e-06
*RES
1 *1512:ZN *1585:C1 44.4643 
*END

*D_NET *432 0.000330943
*CONN
*I *1537:A2 I *D NOR2_X1
*I *1514:B I *D XNOR2_X1
*I *1513:ZN O *D XNOR2_X1
*CAP
1 *1537:A2 1.7003e-05
2 *1514:B 4.48217e-05
3 *1513:ZN 6.25539e-05
4 *432:8 0.000124379
5 *1514:B *433:14 3.65322e-06
6 *1514:B *524:31 2.12997e-05
7 *1537:A2 *1537:A1 1.21774e-06
8 *1537:A2 *2050:B2 0
9 *432:8 *1513:B 1.77822e-05
10 *432:8 *2050:B2 5.39659e-06
11 *432:8 *524:31 2.51112e-05
12 *2058:B1 *1514:B 7.72537e-06
13 *2058:B1 *1537:A2 0
*RES
1 *1513:ZN *432:8 18.3929 
2 *432:8 *1514:B 15.75 
3 *432:8 *1537:A2 11.75 
*END

*D_NET *433 0.000616473
*CONN
*I *1519:B1 I *D OAI21_X1
*I *1515:A2 I *D AND2_X1
*I *1514:ZN O *D XNOR2_X1
*CAP
1 *1519:B1 1.00442e-05
2 *1515:A2 6.18597e-05
3 *1514:ZN 0.000167796
4 *433:14 0.0002397
5 *1515:A2 *1519:B2 0
6 *1515:A2 *1520:A1 6.38328e-07
7 *1515:A2 *1520:A2 2.37093e-06
8 *1515:A2 *524:87 3.26291e-06
9 *1519:B1 *1519:A 2.39679e-06
10 *1519:B1 *1519:B2 2.52965e-06
11 *433:14 *1514:A 7.19036e-06
12 *433:14 *1955:A 1.62705e-06
13 *433:14 *2056:A1 1.25189e-05
14 *433:14 *524:37 0
15 *433:14 *524:87 0
16 *433:14 *1235:8 1.72426e-05
17 *433:14 *1235:23 4.01803e-05
18 *1514:B *433:14 3.65322e-06
19 *2058:B1 *1519:B1 4.04707e-06
20 *2058:B1 *433:14 3.94154e-05
21 *99:45 *433:14 0
*RES
1 *1514:ZN *433:14 34.4643 
2 *433:14 *1515:A2 11.75 
3 *433:14 *1519:B1 6.75 
*END

*D_NET *434 0.000458722
*CONN
*I *1538:B2 I *D OAI21_X1
*I *1520:A1 I *D OR2_X1
*I *1515:ZN O *D AND2_X1
*CAP
1 *1538:B2 6.42314e-05
2 *1520:A1 3.77349e-05
3 *1515:ZN 1.03685e-05
4 *434:8 0.000112335
5 *1520:A1 *1519:A 1.60038e-06
6 *1520:A1 *1519:B2 2.39679e-06
7 *1520:A1 *1520:A2 3.90865e-05
8 *1520:A1 *524:87 0
9 *1538:B2 *1518:A 9.57501e-05
10 *1538:B2 *1519:A 5.13505e-05
11 *1538:B2 *1519:B2 1.2453e-05
12 *1538:B2 *1523:A1 0
13 *434:8 *1519:B2 3.07768e-05
14 *434:8 *1523:A1 0
15 *1515:A2 *1520:A1 6.38328e-07
*RES
1 *1515:ZN *434:8 11.6071 
2 *434:8 *1520:A1 14.75 
3 *434:8 *1538:B2 19.75 
*END

*D_NET *435 0.000529257
*CONN
*I *1517:B I *D XNOR2_X1
*I *1540:C2 I *D OAI211_X1
*I *1516:ZN O *D XNOR2_X1
*CAP
1 *1517:B 0
2 *1540:C2 6.24715e-05
3 *1516:ZN 0.000150378
4 *435:10 0.000212849
5 *1540:C2 *1540:A 1.86809e-06
6 *1540:C2 *1540:B 2.0679e-05
7 *1540:C2 *1540:C1 8.43215e-07
8 *1540:C2 *1584:B 3.07768e-05
9 *1540:C2 *2045:B2 0
10 *1540:C2 *503:8 0
11 *435:10 *1516:A 4.93921e-05
12 *435:10 *2045:B2 0
13 *435:10 *503:8 0
14 *435:10 *530:122 0
*RES
1 *1516:ZN *435:10 25.8571 
2 *435:10 *1540:C2 17.6071 
3 *435:10 *1517:B 10 
*END

*D_NET *436 0.000471506
*CONN
*I *1535:A2 I *D NAND2_X1
*I *1518:B I *D XOR2_X1
*I *1517:ZN O *D XNOR2_X1
*CAP
1 *1535:A2 3.14039e-05
2 *1518:B 8.10175e-06
3 *1517:ZN 7.29186e-05
4 *436:6 0.000112424
5 *1518:B *1947:A 2.52965e-06
6 *1535:A2 *1518:A 1.02238e-05
7 *1535:A2 *1535:A1 9.44188e-05
8 *1535:A2 *1538:A 0
9 *1535:A2 *1540:A 2.39679e-06
10 *1535:A2 *1947:A 0
11 *1535:A2 *2045:B2 0
12 *1535:A2 *437:8 0.000106624
13 *436:6 *1947:A 3.04646e-05
14 *99:16 *436:6 0
*RES
1 *1517:ZN *436:6 13.25 
2 *436:6 *1518:B 5.75 
3 *436:6 *1535:A2 22.1071 
*END

*D_NET *437 0.000496793
*CONN
*I *1538:A I *D OAI21_X1
*I *1519:A I *D OAI21_X1
*I *1518:Z O *D XOR2_X1
*CAP
1 *1538:A 1.19541e-05
2 *1519:A 7.84026e-05
3 *1518:Z 6.0981e-05
4 *437:8 0.000151338
5 *1519:A *1518:A 8.1183e-06
6 *1519:A *1520:A2 7.16188e-07
7 *1538:A *1538:B1 1.21774e-06
8 *1538:A *1540:A 0
9 *1538:A *1540:B 8.43215e-07
10 *437:8 *1518:A 1.39755e-05
11 *437:8 *2045:B2 2.30746e-06
12 *1519:B1 *1519:A 2.39679e-06
13 *1520:A1 *1519:A 1.60038e-06
14 *1535:A2 *1538:A 0
15 *1535:A2 *437:8 0.000106624
16 *1538:B2 *1519:A 5.13505e-05
17 *2058:B1 *1519:A 4.9678e-06
*RES
1 *1518:Z *437:8 19.0714 
2 *437:8 *1519:A 20.3214 
3 *437:8 *1538:A 11.25 
*END

*D_NET *438 0.000115424
*CONN
*I *1520:A2 I *D OR2_X1
*I *1519:ZN O *D OAI21_X1
*CAP
1 *1520:A2 3.6517e-05
2 *1519:ZN 3.6517e-05
3 *1520:A2 *1523:A1 2.16072e-07
4 *1515:A2 *1520:A2 2.37093e-06
5 *1519:A *1520:A2 7.16188e-07
6 *1520:A1 *1520:A2 3.90865e-05
7 *2058:B1 *1520:A2 0
*RES
1 *1519:ZN *1520:A2 14.6786 
*END

*D_NET *439 0.000627311
*CONN
*I *1583:A1 I *D NOR4_X1
*I *1534:A I *D AOI21_X1
*I *1520:ZN O *D OR2_X1
*CAP
1 *1583:A1 7.83064e-05
2 *1534:A 0
3 *1520:ZN 0.000127323
4 *439:12 0.000205629
5 *1583:A1 *1534:B1 7.9424e-06
6 *1583:A1 *1583:A2 4.4596e-05
7 *1583:A1 *1583:A3 0
8 *1583:A1 *1584:A 3.90865e-05
9 *1583:A1 *1584:C2 3.89107e-05
10 *1583:A1 *445:8 0
11 *1583:A1 *524:87 0
12 *439:12 *1523:A1 5.56384e-05
13 *439:12 *1534:B1 2.75346e-06
14 *439:12 *1534:B2 7.90853e-06
15 *439:12 *1584:B 1.92163e-05
16 *439:12 *524:87 0
*RES
1 *1520:ZN *439:12 31.8929 
2 *439:12 *1534:A 5 
3 *439:12 *1583:A1 16.1786 
*END

*D_NET *440 0.000323476
*CONN
*I *1525:A2 I *D NOR2_X1
*I *1522:B I *D XNOR2_X1
*I *1521:ZN O *D XNOR2_X1
*CAP
1 *1525:A2 0
2 *1522:B 4.69143e-05
3 *1521:ZN 6.92552e-05
4 *440:12 0.000116169
5 *1522:B *1525:A1 1.15412e-05
6 *1522:B *1533:A1 1.30111e-05
7 *440:12 *1522:A 0
8 *440:12 *1525:A1 7.16188e-07
9 *440:12 *441:10 0
10 *440:12 *511:41 1.57686e-05
11 *2059:A2 *1522:B 0
12 *61:92 *1522:B 1.37673e-05
13 *61:92 *440:12 3.63331e-05
*RES
1 *1521:ZN *440:12 23.0714 
2 *440:12 *1522:B 21.25 
3 *440:12 *1525:A2 5 
*END

*D_NET *441 0.000637415
*CONN
*I *1523:A2 I *D NAND2_X1
*I *1526:B I *D XNOR2_X1
*I *1522:ZN O *D XNOR2_X1
*CAP
1 *1523:A2 3.17059e-06
2 *1526:B 3.38757e-05
3 *1522:ZN 9.06306e-05
4 *441:10 0.000127677
5 *1523:A2 *1534:B2 5.11191e-06
6 *1523:A2 *511:41 1.72426e-05
7 *1526:B *1526:A 4.93896e-05
8 *1526:B *1534:B1 7.34989e-06
9 *441:10 *1533:A1 6.82862e-06
10 *441:10 *1533:A2 8.43215e-07
11 *441:10 *1534:B2 7.4634e-05
12 *441:10 *511:41 0.000220661
13 *441:10 *1418:43 0
14 *61:92 *441:10 0
15 *440:12 *441:10 0
*RES
1 *1522:ZN *441:10 25.5357 
2 *441:10 *1526:B 14.75 
3 *441:10 *1523:A2 10.9286 
*END

*D_NET *442 0.000275324
*CONN
*I *1534:B1 I *D AOI21_X1
*I *1523:ZN O *D NAND2_X1
*CAP
1 *1534:B1 0.000111143
2 *1523:ZN 0.000111143
3 *1534:B1 *1526:A 0
4 *1534:B1 *1534:B2 1.31769e-05
5 *1534:B1 *445:8 1.21774e-06
6 *1534:B1 *511:39 2.05972e-05
7 *1526:B *1534:B1 7.34989e-06
8 *1583:A1 *1534:B1 7.9424e-06
9 *439:12 *1534:B1 2.75346e-06
*RES
1 *1523:ZN *1534:B1 24.0714 
*END

*D_NET *443 0.000162947
*CONN
*I *1525:A1 I *D NOR2_X1
*I *1524:ZN O *D INV_X1
*CAP
1 *1525:A1 6.38633e-05
2 *1524:ZN 6.38633e-05
3 *1525:A1 *1522:A 6.88146e-06
4 *1522:B *1525:A1 1.15412e-05
5 *2059:A2 *1525:A1 1.22474e-05
6 *61:92 *1525:A1 3.83453e-06
7 *440:12 *1525:A1 7.16188e-07
*RES
1 *1524:ZN *1525:A1 27.6429 
*END

*D_NET *444 0.00024232
*CONN
*I *1533:A1 I *D NOR2_X1
*I *1525:ZN O *D NOR2_X1
*CAP
1 *1533:A1 9.21295e-05
2 *1525:ZN 9.21295e-05
3 *1533:A1 *1533:A2 2.39679e-06
4 *1533:A1 *1534:B2 3.48838e-06
5 *1533:A1 *1582:A 3.23363e-05
6 *1533:A1 *511:41 0
7 *1522:B *1533:A1 1.30111e-05
8 *441:10 *1533:A1 6.82862e-06
*RES
1 *1525:ZN *1533:A1 30.9643 
*END

*D_NET *445 0.000526802
*CONN
*I *1583:A2 I *D NOR4_X1
*I *1532:A1 I *D NOR2_X1
*I *1526:ZN O *D XNOR2_X1
*CAP
1 *1583:A2 7.87788e-05
2 *1532:A1 0.000105137
3 *1526:ZN 5.23078e-05
4 *445:8 0.000236224
5 *1532:A1 *1582:A 4.26671e-06
6 *1532:A1 *1583:A4 0
7 *1532:A1 *530:101 0
8 *1583:A2 *1583:A3 2.75346e-06
9 *1583:A2 *1583:A4 0
10 *1583:A2 *1584:A 1.52083e-06
11 *1583:A2 *530:101 0
12 *445:8 *1584:A 0
13 *1534:B1 *445:8 1.21774e-06
14 *1583:A1 *1583:A2 4.4596e-05
15 *1583:A1 *445:8 0
*RES
1 *1526:ZN *445:8 15.25 
2 *445:8 *1532:A1 21.5 
3 *445:8 *1583:A2 19.25 
*END

*D_NET *446 0.000317772
*CONN
*I *1529:A1 I *D NOR2_X1
*I *1527:ZN O *D INV_X1
*CAP
1 *1529:A1 8.07456e-05
2 *1527:ZN 8.07456e-05
3 *1529:A1 *1528:B 1.02238e-05
4 *1529:A1 *1529:A2 5.90693e-05
5 *1529:A1 *1530:A 7.37443e-06
6 *1529:A1 *1530:B 3.09411e-06
7 *1529:A1 *1531:A 1.72405e-05
8 *1529:A1 *1531:B2 2.19396e-05
9 *1529:A1 *530:64 2.17016e-05
10 *1529:A1 *1248:27 3.65322e-06
11 *61:79 *1529:A1 1.19839e-05
*RES
1 *1527:ZN *1529:A1 31.75 
*END

*D_NET *447 0.000447128
*CONN
*I *1529:A2 I *D NOR2_X1
*I *1530:B I *D XNOR2_X1
*I *1528:ZN O *D XNOR2_X1
*CAP
1 *1529:A2 3.17972e-05
2 *1530:B 4.82248e-06
3 *1528:ZN 2.88662e-05
4 *447:8 6.5486e-05
5 *1529:A2 *1528:B 7.5597e-05
6 *1529:A2 *1531:B2 5.10087e-06
7 *1530:B *1530:A 7.72792e-06
8 *447:8 *1528:B 0.00012095
9 *447:8 *1531:B2 2.66914e-05
10 *1529:A1 *1529:A2 5.90693e-05
11 *1529:A1 *1530:B 3.09411e-06
12 *61:79 *1529:A2 4.32144e-07
13 *95:34 *1529:A2 1.74934e-05
*RES
1 *1528:ZN *447:8 16.3571 
2 *447:8 *1530:B 10.75 
3 *447:8 *1529:A2 16.0714 
*END

*D_NET *448 0.000219799
*CONN
*I *1531:A I *D AOI21_X1
*I *1529:ZN O *D NOR2_X1
*CAP
1 *1531:A 3.69845e-05
2 *1529:ZN 3.69845e-05
3 *1531:A *1528:B 2.99994e-05
4 *1531:A *1531:B1 2.75346e-06
5 *1531:A *1531:B2 8.11741e-05
6 *1531:A *530:101 1.46625e-05
7 *1529:A1 *1531:A 1.72405e-05
*RES
1 *1529:ZN *1531:A 27.1071 
*END

*D_NET *449 0.000485179
*CONN
*I *1582:B I *D XNOR2_X1
*I *1531:B1 I *D AOI21_X1
*I *1530:ZN O *D XNOR2_X1
*CAP
1 *1582:B 5.2028e-05
2 *1531:B1 1.25877e-05
3 *1530:ZN 5.73684e-05
4 *449:8 0.000121984
5 *1531:B1 *1528:B 3.56012e-06
6 *1582:B *1582:A 7.9624e-06
7 *1582:B *1583:A4 1.83053e-06
8 *1582:B *530:101 7.48054e-05
9 *1582:B *1418:20 4.32144e-07
10 *449:8 *1531:B2 4.80119e-06
11 *449:8 *530:101 0.000145066
12 *1531:A *1531:B1 2.75346e-06
*RES
1 *1530:ZN *449:8 18.3929 
2 *449:8 *1531:B1 11.25 
3 *449:8 *1582:B 16.5714 
*END

*D_NET *450 0.000194844
*CONN
*I *1532:A2 I *D NOR2_X1
*I *1531:ZN O *D AOI21_X1
*CAP
1 *1532:A2 9.01709e-05
2 *1531:ZN 9.01709e-05
3 *1532:A2 *1528:B 2.83434e-06
4 *1532:A2 *1533:A2 2.89694e-06
5 *1532:A2 *1418:20 5.11574e-06
6 *1532:A2 *1418:22 3.13512e-06
7 *1532:A2 *1418:43 5.20238e-07
8 *61:79 *1532:A2 0
*RES
1 *1531:ZN *1532:A2 29.0714 
*END

*D_NET *451 0.000293023
*CONN
*I *1533:A2 I *D NOR2_X1
*I *1532:ZN O *D NOR2_X1
*CAP
1 *1533:A2 9.53483e-05
2 *1532:ZN 9.53483e-05
3 *1533:A2 *1582:A 7.74523e-05
4 *1533:A2 *1418:20 1.17619e-05
5 *1533:A2 *1418:43 6.97561e-06
6 *1532:A2 *1533:A2 2.89694e-06
7 *1533:A1 *1533:A2 2.39679e-06
8 *61:79 *1533:A2 0
9 *441:10 *1533:A2 8.43215e-07
*RES
1 *1532:ZN *1533:A2 31.7857 
*END

*D_NET *452 0.000475931
*CONN
*I *1534:B2 I *D AOI21_X1
*I *1533:ZN O *D NOR2_X1
*CAP
1 *1534:B2 0.000170171
2 *1533:ZN 0.000170171
3 *1534:B2 *1515:A1 0
4 *1534:B2 *1523:A1 1.96924e-05
5 *1534:B2 *511:39 6.65423e-06
6 *1534:B2 *511:41 4.92317e-06
7 *1523:A2 *1534:B2 5.11191e-06
8 *1533:A1 *1534:B2 3.48838e-06
9 *1534:B1 *1534:B2 1.31769e-05
10 *439:12 *1534:B2 7.90853e-06
11 *441:10 *1534:B2 7.4634e-05
*RES
1 *1533:ZN *1534:B2 41.9286 
*END

*D_NET *453 0.000410552
*CONN
*I *1584:A I *D AOI211_X1
*I *1534:ZN O *D AOI21_X1
*CAP
1 *1584:A 0.000122494
2 *1534:ZN 0.000122494
3 *1584:A *1584:B 2.75346e-06
4 *1584:A *1584:C2 0.00012041
5 *1584:A *2057:B1 0
6 *1584:A *499:12 6.82202e-07
7 *1584:A *503:8 1.11168e-06
8 *1583:A1 *1584:A 3.90865e-05
9 *1583:A2 *1584:A 1.52083e-06
10 *2058:B1 *1584:A 0
11 *445:8 *1584:A 0
*RES
1 *1534:ZN *1584:A 34.9286 
*END

*D_NET *454 0.000208763
*CONN
*I *1540:A I *D OAI211_X1
*I *1535:ZN O *D NAND2_X1
*CAP
1 *1540:A 0.000101051
2 *1535:ZN 0.000101051
3 *1540:A *1540:B 0
4 *1540:A *1540:C1 2.39679e-06
5 *1540:A *1947:A 0
6 *1535:A2 *1540:A 2.39679e-06
7 *1538:A *1540:A 0
8 *1540:C2 *1540:A 1.86809e-06
*RES
1 *1535:ZN *1540:A 19.75 
*END

*D_NET *455 0.00015353
*CONN
*I *1537:A1 I *D NOR2_X1
*I *1536:ZN O *D INV_X1
*CAP
1 *1537:A1 7.23418e-05
2 *1536:ZN 7.23418e-05
3 *1537:A1 *1513:A 0
4 *1537:A1 *2050:B2 0
5 *1537:A1 *1235:23 7.62912e-06
6 *1537:A2 *1537:A1 1.21774e-06
7 *2058:B1 *1537:A1 0
*RES
1 *1536:ZN *1537:A1 16.4643 
*END

*D_NET *456 0.000315801
*CONN
*I *1538:B1 I *D OAI21_X1
*I *1537:ZN O *D NOR2_X1
*CAP
1 *1538:B1 0.000157291
2 *1537:ZN 0.000157291
3 *1538:B1 *2050:B2 0
4 *1538:A *1538:B1 1.21774e-06
5 *2058:B1 *1538:B1 0
*RES
1 *1537:ZN *1538:B1 25.6071 
*END

*D_NET *457 0.000331099
*CONN
*I *1540:B I *D OAI211_X1
*I *1538:ZN O *D OAI21_X1
*CAP
1 *1540:B 0.000144461
2 *1538:ZN 0.000144461
3 *1540:B *1584:B 1.44489e-05
4 *1540:B *503:8 6.20637e-06
5 *1538:A *1540:B 8.43215e-07
6 *1540:A *1540:B 0
7 *1540:C2 *1540:B 2.0679e-05
8 *2058:B1 *1540:B 0
*RES
1 *1538:ZN *1540:B 35.6071 
*END

*D_NET *458 0.000141892
*CONN
*I *1540:C1 I *D OAI211_X1
*I *1539:ZN O *D INV_X1
*CAP
1 *1540:C1 6.73839e-05
2 *1539:ZN 6.73839e-05
3 *1540:C1 *1539:A 3.88456e-06
4 *1540:C1 *1947:A 0
5 *1540:C1 *1236:17 0
6 *1540:A *1540:C1 2.39679e-06
7 *1540:C2 *1540:C1 8.43215e-07
*RES
1 *1539:ZN *1540:C1 16.8929 
*END

*D_NET *459 0.000478785
*CONN
*I *1584:B I *D AOI211_X1
*I *1540:ZN O *D OAI211_X1
*CAP
1 *1584:B 0.00019896
2 *1540:ZN 0.00019896
3 *1584:B *1523:A1 0
4 *1584:B *499:12 1.21774e-06
5 *1584:B *503:8 0
6 *1584:B *524:87 1.2452e-05
7 *1540:B *1584:B 1.44489e-05
8 *1540:C2 *1584:B 3.07768e-05
9 *1584:A *1584:B 2.75346e-06
10 *2058:B1 *1584:B 0
11 *439:12 *1584:B 1.92163e-05
*RES
1 *1540:ZN *1584:B 43.4643 
*END

*D_NET *460 0.00119224
*CONN
*I *1542:B1 I *D OAI21_X1
*I *1545:B1 I *D AOI22_X1
*I *1581:A3 I *D NOR3_X1
*I *1541:Z O *D XOR2_X1
*CAP
1 *1542:B1 6.08825e-06
2 *1545:B1 7.36607e-05
3 *1581:A3 2.59955e-05
4 *1541:Z 0.000165465
5 *460:12 0.000133908
6 *460:10 0.000205805
7 *1542:B1 *499:12 0
8 *1542:B1 *524:102 7.72792e-06
9 *1545:B1 *1542:B2 1.40196e-06
10 *1545:B1 *1545:A1 3.09411e-06
11 *1545:B1 *1545:A2 2.25849e-06
12 *1545:B1 *1545:B2 0.000107403
13 *1545:B1 *524:102 1.56482e-05
14 *1545:B1 *1247:25 7.72792e-06
15 *1581:A3 *1542:B2 6.32461e-06
16 *1581:A3 *1581:A2 1.72426e-05
17 *1581:A3 *1247:8 0
18 *1581:A3 *1247:21 1.045e-05
19 *1581:A3 *1247:25 2.52965e-06
20 *460:10 *1542:A 0.000366517
21 *460:10 *1848:A 1.83315e-05
22 *460:10 *1933:A 0
23 *460:10 *2052:A1 0
24 *460:10 *2252:CK 0
25 *460:12 *1542:B2 1.46625e-05
26 *95:71 *460:10 0
27 *95:71 *460:12 0
*RES
1 *1541:Z *460:10 34.6786 
2 *460:10 *460:12 3.64286 
3 *460:12 *1581:A3 13.0357 
4 *460:12 *1545:B1 20.75 
5 *460:10 *1542:B1 10.75 
*END

*D_NET *461 0.000205717
*CONN
*I *1546:A1 I *D AND3_X1
*I *1542:ZN O *D OAI21_X1
*CAP
1 *1546:A1 8.75461e-05
2 *1542:ZN 8.75461e-05
3 *1546:A1 *1545:A2 1.86809e-06
4 *1546:A1 *1546:A2 2.39679e-06
5 *1546:A1 *1980:B 4.32144e-07
6 *1546:A1 *499:12 0
7 *1546:A1 *524:102 2.5928e-05
*RES
1 *1542:ZN *1546:A1 19.1786 
*END

*D_NET *462 0.000396729
*CONN
*I *1579:A3 I *D NOR3_X1
*I *1544:A I *D OAI21_X1
*I *1543:Z O *D XOR2_X1
*CAP
1 *1579:A3 1.27657e-05
2 *1544:A 0
3 *1543:Z 9.30484e-05
4 *462:10 0.000105814
5 *1579:A3 *1543:B 0
6 *1579:A3 *1579:A2 3.8984e-05
7 *462:10 *1543:B 0
8 *462:10 *1579:A2 0.000146117
9 *462:10 *1246:12 0
*RES
1 *1543:Z *462:10 21.9643 
2 *462:10 *1544:A 10 
3 *462:10 *1579:A3 12.2857 
*END

*D_NET *463 0.000453587
*CONN
*I *1546:A2 I *D AND3_X1
*I *1544:ZN O *D OAI21_X1
*CAP
1 *1546:A2 0.000114553
2 *1544:ZN 0.000114553
3 *1546:A2 *1545:A1 0
4 *1546:A2 *1579:A1 4.52198e-05
5 *1546:A2 *1579:A2 8.19658e-05
6 *1546:A2 *1980:B 2.32024e-05
7 *1546:A2 *499:12 6.71156e-06
8 *1546:A2 *1131:14 9.55059e-06
9 *1546:A2 *1246:34 5.54348e-05
10 *1546:A1 *1546:A2 2.39679e-06
*RES
1 *1544:ZN *1546:A2 35.6071 
*END

*D_NET *464 0.000164698
*CONN
*I *1546:A3 I *D AND3_X1
*I *1545:ZN O *D AOI22_X1
*CAP
1 *1546:A3 3.56596e-05
2 *1545:ZN 3.56596e-05
3 *1546:A3 *1980:B 9.33792e-05
*RES
1 *1545:ZN *1546:A3 25 
*END

*D_NET *465 0.000248422
*CONN
*I *1580:A I *D OAI21_X1
*I *1546:ZN O *D AND3_X1
*CAP
1 *1580:A 8.5209e-05
2 *1546:ZN 8.5209e-05
3 *1580:A *1545:A2 0
4 *1580:A *1579:A1 0
5 *1580:A *1580:B1 2.75346e-06
6 *1580:A *499:12 7.52506e-05
*RES
1 *1546:ZN *1580:A 29.8571 
*END

*D_NET *466 0.000171171
*CONN
*I *1549:A2 I *D OR2_X1
*I *1548:A2 I *D NAND2_X1
*I *1547:Z O *D XOR2_X1
*CAP
1 *1549:A2 2.74013e-05
2 *1548:A2 0
3 *1547:Z 2.33039e-05
4 *466:8 5.07052e-05
5 *1549:A2 *1547:B 0
6 *1549:A2 *2081:A1 0
7 *1549:A2 *467:8 6.97608e-05
8 *466:8 *1547:B 0
9 *466:8 *2081:A1 0
*RES
1 *1547:Z *466:8 12.2857 
2 *466:8 *1548:A2 10 
3 *466:8 *1549:A2 14.3214 
*END

*D_NET *467 0.000649511
*CONN
*I *1551:A1 I *D NAND2_X1
*I *1552:B1 I *D AOI21_X1
*I *1548:ZN O *D NAND2_X1
*CAP
1 *1551:A1 2.56722e-05
2 *1552:B1 7.17197e-06
3 *1548:ZN 8.34657e-05
4 *467:8 0.00011631
5 *1551:A1 *1551:A2 1.87931e-05
6 *1551:A1 *1556:A 8.06346e-05
7 *1551:A1 *1578:A 1.88334e-06
8 *1551:A1 *1130:18 4.92317e-06
9 *1552:B1 *1552:A 7.19036e-06
10 *467:8 *1547:B 0
11 *467:8 *1551:A2 6.89712e-05
12 *467:8 *1552:B2 6.41837e-05
13 *467:8 *1556:A 4.80119e-06
14 *467:8 *2081:A1 0
15 *467:8 *468:8 9.57501e-05
16 *1549:A2 *467:8 6.97608e-05
*RES
1 *1548:ZN *467:8 24.5 
2 *467:8 *1552:B1 10.75 
3 *467:8 *1551:A1 15.0714 
*END

*D_NET *468 0.000263034
*CONN
*I *1552:B2 I *D AOI21_X1
*I *1550:A2 I *D NAND2_X1
*I *1549:ZN O *D OR2_X1
*CAP
1 *1552:B2 2.2875e-05
2 *1550:A2 0
3 *1549:ZN 2.8675e-05
4 *468:8 5.155e-05
5 *1552:B2 *1547:B 0
6 *468:8 *1547:B 0
7 *467:8 *1552:B2 6.41837e-05
8 *467:8 *468:8 9.57501e-05
*RES
1 *1549:ZN *468:8 15 
2 *468:8 *1550:A2 10 
3 *468:8 *1552:B2 13.6429 
*END

*D_NET *469 0.000274264
*CONN
*I *1551:A2 I *D NAND2_X1
*I *1550:ZN O *D NAND2_X1
*CAP
1 *1551:A2 3.84998e-05
2 *1550:ZN 3.84998e-05
3 *1551:A2 *1552:A 2.08416e-06
4 *1551:A2 *1130:18 0.000107416
5 *1551:A2 *1244:16 0
6 *1551:A1 *1551:A2 1.87931e-05
7 *467:8 *1551:A2 6.89712e-05
*RES
1 *1550:ZN *1551:A2 27.6071 
*END

*D_NET *470 0.000565898
*CONN
*I *1578:A I *D AOI21_X1
*I *1551:ZN O *D NAND2_X1
*CAP
1 *1578:A 6.50231e-05
2 *1551:ZN 6.50231e-05
3 *1578:A *1556:A 3.00344e-05
4 *1578:A *1556:B1 9.44188e-05
5 *1578:A *1556:B2 1.72191e-05
6 *1578:A *1578:B1 4.21607e-06
7 *1578:A *1130:18 0.00028808
8 *1551:A1 *1578:A 1.88334e-06
*RES
1 *1551:ZN *1578:A 35.75 
*END

*D_NET *471 0.000410873
*CONN
*I *1556:A I *D AOI21_X1
*I *1552:ZN O *D AOI21_X1
*CAP
1 *1556:A 0.000121563
2 *1552:ZN 0.000121563
3 *1556:A *1547:B 8.727e-07
4 *1556:A *1556:B1 6.99525e-06
5 *1556:A *1556:B2 4.37715e-05
6 *1556:A *1578:B1 6.38328e-07
7 *1556:A *1990:A 0
8 *1556:A *1130:18 0
9 *1556:A *1244:16 0
10 *1551:A1 *1556:A 8.06346e-05
11 *1578:A *1556:A 3.00344e-05
12 *467:8 *1556:A 4.80119e-06
*RES
1 *1552:ZN *1556:A 36.6786 
*END

*D_NET *472 0.000695027
*CONN
*I *1561:B2 I *D AOI21_X1
*I *1554:A2 I *D NOR2_X1
*I *1553:Z O *D XOR2_X1
*CAP
1 *1561:B2 2.84821e-05
2 *1554:A2 5.10533e-05
3 *1553:Z 0.000111487
4 *472:14 0.000191022
5 *1554:A2 *1554:A1 1.65011e-05
6 *1554:A2 *1580:B1 0
7 *1554:A2 *1130:18 1.28122e-06
8 *1554:A2 *1244:16 6.78899e-05
9 *1561:B2 *1554:A1 3.62612e-06
10 *1561:B2 *1561:B1 8.43215e-07
11 *1561:B2 *1244:16 3.41005e-06
12 *472:14 *1554:A1 9.69234e-05
13 *472:14 *1576:A2 9.54428e-06
14 *472:14 *1577:B2 1.4293e-06
15 *472:14 *766:103 0
16 *472:14 *1244:16 8.75903e-06
17 *472:14 *1419:23 0.000102776
*RES
1 *1553:Z *472:14 31 
2 *472:14 *1554:A2 21.3929 
3 *472:14 *1561:B2 7.75 
*END

*D_NET *473 0.000676727
*CONN
*I *1577:B1 I *D OAI221_X1
*I *1556:B1 I *D AOI21_X1
*I *1554:ZN O *D NOR2_X1
*CAP
1 *1577:B1 4.15251e-05
2 *1556:B1 4.83034e-05
3 *1554:ZN 0
4 *473:6 8.98286e-05
5 *1556:B1 *1578:B2 0.000118579
6 *1556:B1 *1130:18 4.43868e-06
7 *1556:B1 *1244:16 1.41532e-05
8 *1577:B1 *1576:A2 5.11191e-06
9 *1577:B1 *1577:A 7.19036e-06
10 *1577:B1 *1577:B2 7.48282e-05
11 *1577:B1 *1578:B2 0.00015623
12 *1577:B1 *1244:16 1.51249e-05
13 *1556:A *1556:B1 6.99525e-06
14 *1578:A *1556:B1 9.44188e-05
*RES
1 *1554:ZN *473:6 10 
2 *473:6 *1556:B1 19.8214 
3 *473:6 *1577:B1 19.1429 
*END

*D_NET *474 7.70591e-05
*CONN
*I *1556:B2 I *D AOI21_X1
*I *1555:ZN O *D INV_X1
*CAP
1 *1556:B2 8.03428e-06
2 *1555:ZN 8.03428e-06
3 *1556:A *1556:B2 4.37715e-05
4 *1578:A *1556:B2 1.72191e-05
*RES
1 *1555:ZN *1556:B2 22.2857 
*END

*D_NET *475 0.000112828
*CONN
*I *1578:B1 I *D AOI21_X1
*I *1556:ZN O *D AOI21_X1
*CAP
1 *1578:B1 5.3987e-05
2 *1556:ZN 5.3987e-05
3 *1578:B1 *1130:18 0
4 *1556:A *1578:B1 6.38328e-07
5 *1578:A *1578:B1 4.21607e-06
*RES
1 *1556:ZN *1578:B1 15.8214 
*END

*D_NET *476 0.000614228
*CONN
*I *1576:A3 I *D NOR3_X1
*I *1558:A2 I *D NAND2_X1
*I *1559:B1 I *D OAI21_X1
*I *1557:Z O *D XOR2_X1
*CAP
1 *1576:A3 0
2 *1558:A2 5.61137e-05
3 *1559:B1 0
4 *1557:Z 0.000151508
5 *476:18 7.5248e-05
6 *476:12 0.000170642
7 *1558:A2 *1559:A 7.72792e-06
8 *1558:A2 *1559:B2 2.48889e-05
9 *1558:A2 *1560:A2 0
10 *1558:A2 *1576:A1 0
11 *1558:A2 *1576:A2 1.43238e-06
12 *476:12 *1557:B 1.40196e-05
13 *476:12 *1560:A2 2.0476e-06
14 *476:12 *1576:A2 1.91743e-05
15 *476:18 *1559:A 3.89548e-05
16 *476:18 *1560:A1 0
17 *476:18 *1561:B1 5.24698e-05
*RES
1 *1557:Z *476:12 20.3571 
2 *476:12 *476:18 12.9643 
3 *476:18 *1559:B1 5 
4 *476:18 *1558:A2 11.6786 
5 *476:12 *1576:A3 5 
*END

*D_NET *477 0.000364038
*CONN
*I *1560:A1 I *D AND2_X1
*I *1558:ZN O *D NAND2_X1
*CAP
1 *1560:A1 0.000140231
2 *1558:ZN 0.000140231
3 *1560:A1 *1559:A 2.90566e-07
4 *1560:A1 *1559:B2 3.90865e-05
5 *1560:A1 *1560:A2 3.17752e-05
6 *1560:A1 *1561:B1 0
7 *1560:A1 *1576:A2 0
8 *1560:A1 *1995:A 2.84765e-06
9 *1560:A1 *2134:B2 6.0647e-07
10 *1560:A1 *766:103 0
11 *1560:A1 *1243:14 8.96853e-06
12 *476:18 *1560:A1 0
*RES
1 *1558:ZN *1560:A1 34.4286 
*END

*D_NET *478 0.000136897
*CONN
*I *1560:A2 I *D AND2_X1
*I *1559:ZN O *D OAI21_X1
*CAP
1 *1560:A2 5.02721e-05
2 *1559:ZN 5.02721e-05
3 *1560:A2 *1576:A2 2.52965e-06
4 *1558:A2 *1560:A2 0
5 *1560:A1 *1560:A2 3.17752e-05
6 *476:12 *1560:A2 2.0476e-06
*RES
1 *1559:ZN *1560:A2 15.3571 
*END

*D_NET *479 0.000377389
*CONN
*I *1577:A I *D OAI221_X1
*I *1560:ZN O *D AND2_X1
*CAP
1 *1577:A 0.000109266
2 *1560:ZN 0.000109266
3 *1577:A *1554:A1 8.67587e-05
4 *1577:A *1576:A2 4.72944e-05
5 *1577:A *1577:B2 1.68643e-06
6 *1577:A *1577:C2 1.32323e-05
7 *1577:A *766:103 3.32842e-07
8 *1577:A *1419:23 2.36111e-06
9 *1577:B1 *1577:A 7.19036e-06
*RES
1 *1560:ZN *1577:A 35.7143 
*END

*D_NET *480 0.000187221
*CONN
*I *1577:B2 I *D OAI221_X1
*I *1561:ZN O *D AOI21_X1
*CAP
1 *1577:B2 2.42645e-05
2 *1561:ZN 2.42645e-05
3 *1577:B2 *1576:A2 4.24423e-05
4 *1577:B2 *1244:16 6.32202e-06
5 *1577:B2 *1419:23 1.19839e-05
6 *1577:A *1577:B2 1.68643e-06
7 *1577:B1 *1577:B2 7.48282e-05
8 *472:14 *1577:B2 1.4293e-06
*RES
1 *1561:ZN *1577:B2 24.8929 
*END

*D_NET *481 0.00113187
*CONN
*I *1564:A2 I *D NAND2_X1
*I *1574:A3 I *D OR3_X1
*I *1563:B1 I *D OAI21_X1
*I *1562:Z O *D XOR2_X1
*CAP
1 *1564:A2 4.45879e-05
2 *1574:A3 5.17015e-06
3 *1563:B1 2.75792e-05
4 *1562:Z 6.28205e-05
5 *481:23 4.97581e-05
6 *481:10 9.03997e-05
7 *1563:B1 *1562:A 2.94093e-05
8 *1563:B1 *1563:A 6.76015e-05
9 *1563:B1 *1563:B2 6.32965e-06
10 *1563:B1 *1574:A1 6.38328e-07
11 *1563:B1 *1574:A2 8.56759e-06
12 *1563:B1 *511:130 0
13 *1564:A2 *1562:A 1.39097e-06
14 *1564:A2 *1565:A2 2.39679e-06
15 *1564:A2 *1574:A2 2.44301e-05
16 *1564:A2 *1242:14 8.43215e-07
17 *1564:A2 *1242:26 6.17299e-05
18 *1574:A3 *1574:A2 7.19036e-06
19 *1574:A3 *1242:26 7.19036e-06
20 *481:10 *1562:A 0.000302537
21 *481:10 *1562:B 7.72792e-06
22 *481:10 *1563:A 0.000319569
23 *481:10 *1786:B2 7.66675e-07
24 *481:10 *1790:A2 3.23873e-06
*RES
1 *1562:Z *481:10 27.9643 
2 *481:10 *1563:B1 15.0714 
3 *481:10 *481:23 5 
4 *481:23 *1574:A3 5.75 
5 *481:23 *1564:A2 21.1071 
*END

*D_NET *482 0.000257214
*CONN
*I *1565:A1 I *D NAND2_X1
*I *1563:ZN O *D OAI21_X1
*CAP
1 *1565:A1 7.38311e-05
2 *1563:ZN 7.38311e-05
3 *1565:A1 *1563:A 1.90574e-06
4 *1565:A1 *1563:B2 1.31814e-05
5 *1565:A1 *1565:A2 1.51469e-05
6 *1565:A1 *1575:A 2.61469e-06
7 *1565:A1 *1575:B2 1.55645e-05
8 *1565:A1 *494:12 5.20866e-05
9 *1565:A1 *1242:26 9.05228e-06
*RES
1 *1563:ZN *1565:A1 31.4643 
*END

*D_NET *483 0.000222729
*CONN
*I *1565:A2 I *D NAND2_X1
*I *1564:ZN O *D NAND2_X1
*CAP
1 *1565:A2 8.83271e-05
2 *1564:ZN 8.83271e-05
3 *1565:A2 *1575:B1 4.79658e-06
4 *1565:A2 *1575:B2 4.9678e-06
5 *1565:A2 *494:12 1.65202e-06
6 *1565:A2 *1242:26 1.71148e-05
7 *1564:A2 *1565:A2 2.39679e-06
8 *1565:A1 *1565:A2 1.51469e-05
*RES
1 *1564:ZN *1565:A2 19.75 
*END

*D_NET *484 0.000184145
*CONN
*I *1575:A I *D AOI21_X1
*I *1565:ZN O *D NAND2_X1
*CAP
1 *1575:A 8.07928e-05
2 *1565:ZN 8.07928e-05
3 *1575:A *1575:B1 2.39679e-06
4 *1575:A *1575:B2 1.65202e-06
5 *1575:A *494:12 1.5896e-05
6 *1565:A1 *1575:A 2.61469e-06
*RES
1 *1565:ZN *1575:A 19.0357 
*END

*D_NET *485 0.000709589
*CONN
*I *1568:B1 I *D AOI21_X1
*I *1572:A3 I *D OAI33_X1
*I *1567:A2 I *D NOR2_X1
*I *1566:Z O *D XOR2_X1
*CAP
1 *1568:B1 3.04058e-05
2 *1572:A3 3.73378e-05
3 *1567:A2 6.24307e-05
4 *1566:Z 0.000147148
5 *485:14 0.000126423
6 *485:10 0.000204208
7 *1567:A2 *1569:A 0
8 *1567:A2 *1570:C2 1.13879e-05
9 *1567:A2 *1572:B1 3.51536e-06
10 *1567:A2 *1572:B2 1.50079e-05
11 *1567:A2 *488:10 0
12 *1568:B1 *1568:B2 1.21774e-06
13 *1568:B1 *1572:B2 7.19036e-06
14 *1572:A3 *1568:B2 7.16188e-07
15 *1572:A3 *1572:A2 2.75346e-06
16 *1572:A3 *1572:B1 4.16281e-06
17 *485:10 *1566:A 0
18 *485:10 *1568:A 0
19 *485:10 *488:10 0
20 *485:14 *1572:B2 5.56848e-05
21 *485:14 *488:10 0
*RES
1 *1566:Z *485:10 25.8929 
2 *485:10 *485:14 8.64286 
3 *485:14 *1567:A2 22.4286 
4 *485:14 *1572:A3 9.25 
5 *485:10 *1568:B1 14.25 
*END

*D_NET *486 0.000167019
*CONN
*I *1573:A1 I *D OAI22_X1
*I *1567:ZN O *D NOR2_X1
*CAP
1 *1573:A1 5.0004e-05
2 *1567:ZN 5.0004e-05
3 *1573:A1 *1567:A1 2.55331e-06
4 *1573:A1 *1570:C2 1.03664e-05
5 *1573:A1 *1573:A2 1.32323e-05
6 *1573:A1 *1573:B1 6.74466e-06
7 *1573:A1 *492:8 3.41146e-05
*RES
1 *1567:ZN *1573:A1 17.0357 
*END

*D_NET *487 0.000245065
*CONN
*I *1573:A2 I *D OAI22_X1
*I *1568:ZN O *D AOI21_X1
*CAP
1 *1573:A2 7.43705e-05
2 *1568:ZN 7.43705e-05
3 *1573:A2 *1566:A 1.71706e-05
4 *1573:A2 *1570:C2 1.71005e-05
5 *1573:A2 *1572:B2 1.88392e-05
6 *1573:A2 *1573:B2 2.69644e-05
7 *1573:A2 *1241:27 3.01743e-06
8 *1573:A1 *1573:A2 1.32323e-05
*RES
1 *1568:ZN *1573:A2 30.3214 
*END

*D_NET *488 0.000731079
*CONN
*I *1572:B1 I *D OAI33_X1
*I *1570:C1 I *D AOI211_X1
*I *1569:Z O *D XOR2_X1
*CAP
1 *1572:B1 7.10296e-05
2 *1570:C1 5.36852e-05
3 *1569:Z 0.000130565
4 *488:10 0.00025528
5 *1570:C1 *1570:A 1.1222e-05
6 *1570:C1 *1570:C2 4.50083e-05
7 *1570:C1 *1572:B2 0
8 *1572:B1 *1567:A1 3.28137e-06
9 *1572:B1 *1570:C2 4.66361e-05
10 *1572:B1 *1572:A1 8.43215e-07
11 *1572:B1 *1572:B2 3.78433e-05
12 *488:10 *1569:A 6.80063e-05
13 *1567:A2 *1572:B1 3.51536e-06
14 *1567:A2 *488:10 0
15 *1572:A3 *1572:B1 4.16281e-06
16 *485:10 *488:10 0
17 *485:14 *488:10 0
*RES
1 *1569:Z *488:10 32.2143 
2 *488:10 *1570:C1 11.75 
3 *488:10 *1572:B1 14.25 
*END

*D_NET *489 0.000555427
*CONN
*I *1573:B1 I *D OAI22_X1
*I *1570:ZN O *D AOI211_X1
*CAP
1 *1573:B1 0.000128595
2 *1570:ZN 0.000128595
3 *1573:B1 *1571:A2 9.2096e-05
4 *1573:B1 *492:8 0.000138938
5 *1573:B1 *1231:31 2.80734e-05
6 *1573:B1 *1327:14 3.23841e-05
7 *1573:A1 *1573:B1 6.74466e-06
*RES
1 *1570:ZN *1573:B1 39.75 
*END

*D_NET *490 0.000526589
*CONN
*I *1572:B2 I *D OAI33_X1
*I *1571:ZN O *D AND2_X1
*CAP
1 *1572:B2 0.000177943
2 *1571:ZN 0.000177943
3 *1572:B2 *1567:A1 3.08216e-05
4 *1572:B2 *1570:C2 1.52083e-06
5 *1572:B2 *1572:B3 2.39679e-06
6 *1572:B2 *1756:A 0
7 *1572:B2 *1327:14 1.39839e-06
8 *1567:A2 *1572:B2 1.50079e-05
9 *1568:B1 *1572:B2 7.19036e-06
10 *1570:C1 *1572:B2 0
11 *1572:B1 *1572:B2 3.78433e-05
12 *1573:A2 *1572:B2 1.88392e-05
13 *485:14 *1572:B2 5.56848e-05
*RES
1 *1571:ZN *1572:B2 40.8572 
*END

*D_NET *491 0.000250491
*CONN
*I *1573:B2 I *D OAI22_X1
*I *1572:ZN O *D OAI33_X1
*CAP
1 *1573:B2 4.83087e-05
2 *1572:ZN 4.83087e-05
3 *1573:B2 *1241:10 7.75536e-05
4 *1573:B2 *1241:27 4.93557e-05
5 *1573:A2 *1573:B2 2.69644e-05
*RES
1 *1572:ZN *1573:B2 27.0357 
*END

*D_NET *492 0.00133906
*CONN
*I *1575:B1 I *D AOI21_X1
*I *1573:ZN O *D OAI22_X1
*CAP
1 *1575:B1 0.000121657
2 *1573:ZN 0.000257666
3 *492:8 0.000379323
4 *1575:B1 *1575:B2 8.43215e-07
5 *1575:B1 *1242:14 3.24359e-06
6 *492:8 *1567:A1 0
7 *492:8 *1570:C2 0
8 *492:8 *1571:A2 0
9 *492:8 *1852:B 0.000103552
10 *492:8 *1853:A 5.40099e-05
11 *492:8 *771:10 9.74193e-06
12 *492:8 *1242:8 0.000143732
13 *492:8 *1242:14 8.50439e-05
14 *1565:A2 *1575:B1 4.79658e-06
15 *1573:A1 *492:8 3.41146e-05
16 *1573:B1 *492:8 0.000138938
17 *1575:A *1575:B1 2.39679e-06
*RES
1 *1573:ZN *492:8 44.7143 
2 *492:8 *1575:B1 17.25 
*END

*D_NET *493 8.76989e-05
*CONN
*I *1575:B2 I *D AOI21_X1
*I *1574:ZN O *D OR3_X1
*CAP
1 *1575:B2 2.33752e-05
2 *1574:ZN 2.33752e-05
3 *1575:B2 *1563:A 1.55241e-05
4 *1575:B2 *494:12 2.39679e-06
5 *1565:A1 *1575:B2 1.55645e-05
6 *1565:A2 *1575:B2 4.9678e-06
7 *1575:A *1575:B2 1.65202e-06
8 *1575:B1 *1575:B2 8.43215e-07
*RES
1 *1574:ZN *1575:B2 23.5357 
*END

*D_NET *494 0.00189369
*CONN
*I *1577:C1 I *D OAI221_X1
*I *1575:ZN O *D AOI21_X1
*CAP
1 *1577:C1 0
2 *1575:ZN 0.000215363
3 *494:18 0.000280459
4 *494:12 0.000495822
5 *494:12 *1563:B2 0
6 *494:12 *2097:A1 0.000123588
7 *494:12 *2244:D 0
8 *494:18 *1577:C2 8.43215e-07
9 *494:18 *2101:B2 0
10 *494:18 *2244:D 0
11 *494:18 *766:103 0.000113079
12 *494:18 *1419:23 0
13 *1565:A1 *494:12 5.20866e-05
14 *1565:A2 *494:12 1.65202e-06
15 *1575:A *494:12 1.5896e-05
16 *1575:B2 *494:12 2.39679e-06
17 *2097:A2 *494:12 2.55596e-05
18 *2097:A2 *494:18 3.02372e-05
19 *2102:B2 *494:12 0
20 *2102:B2 *494:18 0
21 *61:48 *494:18 0.000246093
22 *61:147 *494:18 0.000290617
*RES
1 *1575:ZN *494:12 40.5357 
2 *494:12 *494:18 45.8572 
3 *494:18 *1577:C1 5 
*END

*D_NET *495 0.000588567
*CONN
*I *1577:C2 I *D OAI221_X1
*I *1576:ZN O *D NOR3_X1
*CAP
1 *1577:C2 6.24708e-05
2 *1576:ZN 6.24708e-05
3 *1577:C2 *1554:A1 1.17587e-06
4 *1577:C2 *1561:B1 0.000220658
5 *1577:C2 *1576:A2 0.000219523
6 *1577:C2 *1578:B2 6.32461e-06
7 *1577:C2 *766:103 1.86809e-06
8 *1577:A *1577:C2 1.32323e-05
9 *494:18 *1577:C2 8.43215e-07
*RES
1 *1576:ZN *1577:C2 34.3929 
*END

*D_NET *496 0.000604753
*CONN
*I *1578:B2 I *D AOI21_X1
*I *1577:ZN O *D OAI221_X1
*CAP
1 *1578:B2 0.000101589
2 *1577:ZN 0.000101589
3 *1578:B2 *1561:B1 0.000116452
4 *1578:B2 *1576:A2 3.98918e-06
5 *1556:B1 *1578:B2 0.000118579
6 *1577:B1 *1578:B2 0.00015623
7 *1577:C2 *1578:B2 6.32461e-06
*RES
1 *1577:ZN *1578:B2 36.5357 
*END

*D_NET *497 0.000393681
*CONN
*I *1580:B1 I *D OAI21_X1
*I *1578:ZN O *D AOI21_X1
*CAP
1 *1580:B1 0.000195042
2 *1578:ZN 0.000195042
3 *1580:B1 *1554:A1 0
4 *1580:B1 *1579:A1 0
5 *1580:B1 *1130:18 8.43215e-07
6 *1554:A2 *1580:B1 0
7 *1580:A *1580:B1 2.75346e-06
*RES
1 *1578:ZN *1580:B1 28.75 
*END

*D_NET *498 4.28951e-05
*CONN
*I *1580:B2 I *D OAI21_X1
*I *1579:ZN O *D NOR3_X1
*CAP
1 *1580:B2 2.14476e-05
2 *1579:ZN 2.14476e-05
3 *1580:B2 *1980:B 0
*RES
1 *1579:ZN *1580:B2 12.2857 
*END

*D_NET *499 0.000995044
*CONN
*I *1584:C1 I *D AOI211_X1
*I *1580:ZN O *D OAI21_X1
*CAP
1 *1584:C1 8.71307e-06
2 *1580:ZN 0.000401585
3 *499:12 0.000410298
4 *499:12 *1980:B 2.56379e-05
5 *499:12 *2057:A 2.52965e-06
6 *499:12 *2057:B2 3.23338e-05
7 *499:12 *2252:D 0
8 *499:12 *524:87 2.34839e-05
9 *499:12 *524:102 6.59997e-06
10 *1542:B1 *499:12 0
11 *1546:A1 *499:12 0
12 *1546:A2 *499:12 6.71156e-06
13 *1580:A *499:12 7.52506e-05
14 *1584:A *499:12 6.82202e-07
15 *1584:B *499:12 1.21774e-06
16 *2058:B2 *1584:C1 0
17 *2058:B2 *499:12 0
18 *95:81 *499:12 0
*RES
1 *1580:ZN *499:12 49.0714 
2 *499:12 *1584:C1 5.92857 
*END

*D_NET *500 0.000367426
*CONN
*I *1583:A3 I *D NOR4_X1
*I *1581:ZN O *D NOR3_X1
*CAP
1 *1583:A3 0.000178472
2 *1581:ZN 0.000178472
3 *1583:A3 *524:102 0
4 *1583:A3 *1247:25 7.72792e-06
5 *1583:A1 *1583:A3 0
6 *1583:A2 *1583:A3 2.75346e-06
*RES
1 *1581:ZN *1583:A3 27.6429 
*END

*D_NET *501 0.000396546
*CONN
*I *1583:A4 I *D NOR4_X1
*I *1582:ZN O *D XNOR2_X1
*CAP
1 *1583:A4 8.47793e-05
2 *1582:ZN 8.47793e-05
3 *1583:A4 *530:101 0.000225157
4 *1532:A1 *1583:A4 0
5 *1582:B *1583:A4 1.83053e-06
6 *1583:A2 *1583:A4 0
*RES
1 *1582:ZN *1583:A4 33.0357 
*END

*D_NET *502 0.000300708
*CONN
*I *1584:C2 I *D AOI211_X1
*I *1583:ZN O *D NOR4_X1
*CAP
1 *1584:C2 7.06937e-05
2 *1583:ZN 7.06937e-05
3 *1584:C2 *524:87 0
4 *1583:A1 *1584:C2 3.89107e-05
5 *1584:A *1584:C2 0.00012041
*RES
1 *1583:ZN *1584:C2 30.1071 
*END

*D_NET *503 0.00214784
*CONN
*I *1585:C2 I *D OAI211_X1
*I *1584:ZN O *D AOI211_X1
*CAP
1 *1585:C2 3.34872e-05
2 *1584:ZN 0
3 *503:8 0.000860559
4 *503:6 0.000827072
5 *503:8 *1516:B 4.33176e-05
6 *503:8 *1935:A 1.25431e-05
7 *503:8 *2254:D 1.50869e-06
8 *503:8 *2254:CK 1.80424e-05
9 *503:8 *1238:23 1.55581e-05
10 *503:8 *1419:66 1.46622e-05
11 *1503:B2 *503:8 0
12 *1508:A *503:8 2.33807e-05
13 *1508:C2 *503:8 8.19658e-05
14 *1509:A *503:8 5.39877e-06
15 *1540:B *503:8 6.20637e-06
16 *1540:C2 *503:8 0
17 *1584:A *503:8 1.11168e-06
18 *1584:B *503:8 0
19 *1585:A *1585:C2 4.72932e-06
20 *1585:B *503:8 7.14239e-06
21 *1585:C1 *1585:C2 1.21774e-06
22 *2046:A *503:8 2.97112e-05
23 *2047:A2 *503:8 1.86998e-06
24 *2116:A *503:8 6.83866e-05
25 *61:173 *503:8 1.25407e-05
26 *404:8 *503:8 7.74262e-05
27 *425:12 *503:8 0
28 *435:10 *503:8 0
*RES
1 *1584:ZN *503:6 10 
2 *503:6 *503:8 100.679 
3 *503:8 *1585:C2 13.25 
*END

*D_NET *504 0.00042517
*CONN
*I *1591:A1 I *D AND2_X1
*I *1605:B1 I *D AOI21_X4
*I *1585:ZN O *D OAI211_X1
*CAP
1 *1591:A1 0
2 *1605:B1 4.378e-05
3 *1585:ZN 0.000121082
4 *504:8 0.000164862
5 *1605:B1 *1591:A2 5.58514e-05
6 *1605:B1 *1592:A2 3.83757e-05
7 *504:8 *1485:A 0
8 *504:8 *1591:A2 1.21774e-06
9 *1585:C1 *1605:B1 0
10 *1585:C1 *504:8 0
*RES
1 *1585:ZN *504:8 17.3929 
2 *504:8 *1605:B1 11.9286 
3 *504:8 *1591:A1 5 
*END

*D_NET *505 8.34949e-05
*CONN
*I *1589:A1 I *D NAND2_X1
*I *1586:ZN O *D NAND2_X1
*CAP
1 *1589:A1 4.12178e-05
2 *1586:ZN 4.12178e-05
3 *1589:A1 *1586:A1 0
4 *1589:A1 *1589:A2 8.43215e-07
5 *1589:A1 *2175:A 0
6 *1586:A2 *1589:A1 2.16072e-07
*RES
1 *1586:ZN *1589:A1 14.2143 
*END

*D_NET *506 0.00031058
*CONN
*I *1588:A4 I *D NOR4_X1
*I *1587:ZN O *D NOR2_X1
*CAP
1 *1588:A4 0.000119651
2 *1587:ZN 0.000119651
3 *1588:A4 *1455:A1 0
4 *1588:A4 *1589:A2 2.14856e-06
5 *1588:A4 *2191:B 1.40196e-05
6 *1473:A2 *1588:A4 0
7 *1588:A1 *1588:A4 2.16072e-07
8 *1588:A2 *1588:A4 5.48932e-05
9 *1588:A3 *1588:A4 0
*RES
1 *1587:ZN *1588:A4 33.0714 
*END

*D_NET *507 0.000297947
*CONN
*I *1589:A2 I *D NAND2_X1
*I *1588:ZN O *D NOR4_X1
*CAP
1 *1589:A2 0.000144652
2 *1588:ZN 0.000144652
3 *1589:A2 *2175:A 2.23415e-06
4 *1589:A2 *2191:B 0
5 *1586:A2 *1589:A2 0
6 *1588:A1 *1589:A2 1.04584e-06
7 *1588:A3 *1589:A2 2.37093e-06
8 *1588:A4 *1589:A2 2.14856e-06
9 *1589:A1 *1589:A2 8.43215e-07
*RES
1 *1588:ZN *1589:A2 25.1786 
*END

*D_NET *508 0.00108403
*CONN
*I *1590:A3 I *D NOR3_X4
*I *1589:ZN O *D NAND2_X1
*CAP
1 *1590:A3 2.99628e-05
2 *1589:ZN 0.000293536
3 *508:8 0.000323499
4 *1590:A3 *2193:A 0
5 *508:8 *1426:B 1.07143e-05
6 *508:8 *2191:B 9.41822e-05
7 *508:8 *2209:B2 0
8 *1484:C2 *1590:A3 3.90865e-05
9 *2192:B *508:8 8.16741e-05
10 *2193:B *508:8 0
11 *2209:A *508:8 0
12 *2211:B2 *508:8 0
13 *307:8 *508:8 0.000211371
*RES
1 *1589:ZN *508:8 49.6072 
2 *508:8 *1590:A3 13.75 
*END

*D_NET *509 0.000424236
*CONN
*I *1591:A2 I *D AND2_X1
*I *1605:B2 I *D AOI21_X4
*I *1590:ZN O *D NOR3_X4
*CAP
1 *1591:A2 5.79018e-05
2 *1605:B2 0.000137661
3 *1590:ZN 7.97595e-05
4 *1591:A2 *1485:A 0
5 *1591:A2 *1592:A2 2.43548e-06
6 *1605:B2 *1485:A 0
7 *1605:B2 *2209:B2 2.31008e-05
8 *1590:A1 *1605:B2 3.35796e-05
9 *1605:B1 *1591:A2 5.58514e-05
10 *403:10 *1605:B2 3.27287e-05
11 *504:8 *1591:A2 1.21774e-06
*RES
1 *1590:ZN *1605:B2 30.9643 
2 *1605:B2 *1591:A2 17.1786 
*END

*D_NET *510 0.00027574
*CONN
*I *1592:A2 I *D OR2_X1
*I *1591:ZN O *D AND2_X1
*CAP
1 *1592:A2 8.40377e-05
2 *1591:ZN 8.40377e-05
3 *1592:A2 *1485:A 0
4 *1585:C1 *1592:A2 0
5 *1591:A2 *1592:A2 2.43548e-06
6 *1592:A1 *1592:A2 6.11142e-05
7 *1605:B1 *1592:A2 3.83757e-05
8 *403:10 *1592:A2 5.73957e-06
*RES
1 *1591:ZN *1592:A2 30.5357 
*END

*D_NET *511 0.0150554
*CONN
*I *2108:A1 I *D NOR2_X1
*I *2112:A1 I *D NOR2_X1
*I *1593:B1 I *D AOI21_X1
*I *1594:B1 I *D OAI21_X1
*I *2094:A I *D AOI21_X1
*I *1604:A1 I *D OR2_X1
*I *1841:B2 I *D AOI221_X1
*I *1925:C2 I *D AOI221_X1
*I *2104:A1 I *D NOR2_X1
*I *2145:A I *D AOI211_X2
*I *2036:A I *D AOI21_X1
*I *2044:A1 I *D NOR2_X1
*I *2049:A I *D AOI21_X1
*I *2162:A2 I *D NOR2_X1
*I *2083:A I *D AOI21_X1
*I *2072:A I *D AOI21_X1
*I *2061:A I *D AOI21_X1
*I *1592:ZN O *D OR2_X1
*CAP
1 *2108:A1 5.38616e-05
2 *2112:A1 0
3 *1593:B1 7.7101e-05
4 *1594:B1 0
5 *2094:A 0.000253128
6 *1604:A1 4.00743e-05
7 *1841:B2 0.000127245
8 *1925:C2 0
9 *2104:A1 0
10 *2145:A 0
11 *2036:A 0
12 *2044:A1 0
13 *2049:A 7.17197e-06
14 *2162:A2 0.000179267
15 *2083:A 0
16 *2072:A 2.44801e-05
17 *2061:A 0
18 *1592:ZN 0
19 *511:195 0.000374704
20 *511:167 0.000256595
21 *511:159 0.000241347
22 *511:157 4.29408e-05
23 *511:155 0.000216971
24 *511:153 0.000322155
25 *511:149 0.000382687
26 *511:140 0.000244245
27 *511:134 0.000401971
28 *511:130 0.000615768
29 *511:117 0.000503131
30 *511:108 0.000591363
31 *511:106 0.000452015
32 *511:95 0.000254162
33 *511:73 0.000510573
34 *511:69 0.00041776
35 *511:56 0.000620349
36 *511:54 0.000533895
37 *511:41 0.00026942
38 *511:39 0.000546824
39 *511:22 0.000307431
40 *511:18 0.000473882
41 *511:16 0.000737875
42 *511:10 0.000476691
43 *511:8 0.000471308
44 *511:6 0.000471308
45 *1593:B1 *1594:A 3.71145e-05
46 *1604:A1 *1604:A2 2.75346e-06
47 *1604:A1 *1609:A2 6.38328e-07
48 *1604:A1 *1836:A3 7.16188e-07
49 *1604:A1 *2113:B2 1.0968e-05
50 *1841:B2 *1841:B1 1.25189e-05
51 *1841:B2 *1843:B1 2.89018e-05
52 *1841:B2 *1925:A 4.79358e-06
53 *1841:B2 *1925:B2 5.96249e-05
54 *1841:B2 *2169:B 0
55 *1841:B2 *2751:A 1.30565e-05
56 *1841:B2 *755:10 1.66988e-05
57 *1841:B2 *755:12 0.000119869
58 *1841:B2 *755:14 0.000250605
59 *2094:A *1604:A2 1.37423e-05
60 *2094:A *1606:A 2.08416e-06
61 *2094:A *1608:A1 0
62 *2094:A *1609:A2 0
63 *2094:A *1836:A2 2.39679e-06
64 *2094:A *1994:A 5.06354e-05
65 *2108:A1 *2109:B1 0
66 *2162:A2 *524:135 6.98513e-06
67 *2162:A2 *524:144 2.5866e-05
68 *2162:A2 *524:159 2.39679e-06
69 *511:8 *1426:A 0
70 *511:8 *1426:B 3.09682e-06
71 *511:8 *1497:A 0
72 *511:8 *1497:B 0
73 *511:8 *1500:A1 0
74 *511:8 *1510:A1 0
75 *511:8 *524:10 0
76 *511:16 *1439:A 0
77 *511:16 *1940:A 5.05238e-06
78 *511:18 *1950:A1 0
79 *511:39 *1526:A 0
80 *511:41 *1521:B 0.000350903
81 *511:41 *1523:A1 2.94435e-05
82 *511:56 *1528:A 0
83 *511:56 *1528:B 0
84 *511:56 *1977:A 0
85 *511:56 *2084:B2 0
86 *511:56 *524:112 0
87 *511:69 *1978:B 5.38638e-06
88 *511:69 *2084:B2 2.94533e-05
89 *511:69 *524:116 0
90 *511:73 *1978:B 0
91 *511:73 *1983:B 3.35822e-05
92 *511:73 *1987:A 0
93 *511:73 *524:122 0
94 *511:73 *524:135 0
95 *511:95 *2041:A1 1.59485e-05
96 *511:106 *2041:A1 0.000116162
97 *511:108 *1935:A 0
98 *511:130 *1562:A 0
99 *511:130 *1563:B2 2.14856e-06
100 *511:130 *1574:A2 0
101 *511:130 *2029:B 3.65322e-06
102 *511:130 *2133:A1 0
103 *511:134 *1854:A 3.83757e-05
104 *511:134 *1854:B 3.09143e-06
105 *511:134 *2002:B1 0
106 *511:134 *2243:CK 0
107 *511:134 *772:10 0.000191614
108 *511:140 *1871:A 4.37715e-05
109 *511:140 *2103:A1 0
110 *511:140 *772:10 5.14369e-05
111 *511:140 *1327:14 7.26814e-06
112 *511:149 *2109:B1 0
113 *511:153 *1421:84 5.05239e-05
114 *511:155 *1844:A 5.57182e-06
115 *511:157 *1836:A1 1.11168e-06
116 *511:157 *1844:A 4.45767e-06
117 *511:159 *1594:B2 2.09871e-05
118 *511:159 *1836:A1 5.7416e-06
119 *511:167 *1594:B2 3.39527e-06
120 *511:167 *1841:C2 6.92212e-05
121 *511:167 *1925:A 2.39679e-06
122 *511:167 *1925:B1 1.68643e-06
123 *511:167 *755:10 8.52479e-05
124 *511:195 *1836:A1 4.99246e-05
125 *511:195 *1836:A2 5.57776e-06
126 *511:195 *2113:B2 4.30618e-06
127 *1501:B1 *511:8 2.46104e-05
128 *1501:B2 *511:8 3.87635e-05
129 *1510:A2 *511:8 0
130 *1511:A2 *511:8 4.80515e-06
131 *1523:A2 *511:41 1.72426e-05
132 *1533:A1 *511:41 0
133 *1534:B1 *511:39 2.05972e-05
134 *1534:B2 *511:39 6.65423e-06
135 *1534:B2 *511:41 4.92317e-06
136 *1563:B1 *511:130 0
137 *1593:A *1593:B1 3.13138e-05
138 *1925:C1 *1841:B2 1.19839e-05
139 *1925:C1 *511:167 2.39679e-06
140 *1940:S *511:16 9.24246e-06
141 *1940:S *511:18 6.51628e-05
142 *2003:B2 *511:149 1.07429e-05
143 *2007:A *2162:A2 0
144 *2008:A2 *511:73 1.08561e-05
145 *2010:A1 *511:73 0
146 *2010:A2 *511:73 3.19164e-06
147 *2011:A *511:73 2.36213e-05
148 *2014:A *511:56 1.26414e-05
149 *2014:B1 *511:56 2.13261e-05
150 *2023:A *511:18 0
151 *2025:B2 *511:8 8.48171e-06
152 *2029:S *511:130 1.45851e-05
153 *2046:B1 *511:95 1.19642e-06
154 *2061:B1 *511:22 8.26038e-06
155 *2063:A *511:39 9.10563e-05
156 *2063:B1 *511:39 1.40879e-05
157 *2063:B2 *511:39 0
158 *2071:A1 *511:56 0
159 *2078:A2 *511:56 4.38852e-05
160 *2082:A2 *511:69 1.76415e-05
161 *2085:B1 *511:69 3.48838e-06
162 *2089:A2 *2162:A2 1.08036e-06
163 *2094:B1 *2094:A 2.39679e-06
164 *2094:B2 *2094:A 2.39679e-06
165 *2098:A2 *511:134 0
166 *2099:A *511:134 0
167 *2104:A2 *511:140 8.43215e-07
168 *2104:A2 *511:149 1.20769e-05
169 *2108:A2 *2108:A1 1.21774e-06
170 *2110:B2 *2108:A1 2.08416e-06
171 *2121:A *2072:A 0
172 *2121:A *511:41 0
173 *2142:A1 *511:117 2.95752e-05
174 *2145:B *511:117 3.41146e-05
175 *2145:B *511:130 8.26038e-06
176 *2145:C2 *511:117 0
177 *2146:B2 *511:117 1.37673e-05
178 *2146:B2 *511:130 3.2921e-05
179 *2254:RN *511:108 0
180 *51:12 *511:149 1.86809e-06
181 *53:27 *2108:A1 1.39607e-05
182 *53:27 *511:149 3.7878e-05
183 *53:27 *511:153 0
184 *61:227 *511:140 0.00016106
185 *61:256 *511:153 0
186 *61:256 *511:155 0
187 *61:256 *511:157 0
188 *61:256 *511:159 0
189 *61:256 *511:167 0
190 *95:131 *1604:A1 6.78878e-05
191 *95:131 *511:195 2.96955e-05
192 *95:135 *1593:B1 8.18024e-05
193 *95:135 *511:195 0
194 *99:147 *511:108 0
195 *144:8 *511:56 6.82202e-07
196 *154:6 *2162:A2 0
197 *154:6 *511:73 0
198 *174:14 *511:69 7.47756e-06
199 *177:10 *511:73 0
200 *178:8 *511:56 1.21774e-06
201 *178:8 *511:69 8.81053e-06
202 *178:10 *511:56 2.6197e-05
203 *181:6 *511:56 0
204 *182:6 *2072:A 3.65322e-06
205 *182:6 *511:56 5.11118e-06
206 *182:12 *2072:A 1.21774e-06
207 *187:12 *511:18 0
208 *191:6 *2049:A 7.19036e-06
209 *191:18 *511:16 0.000238152
210 *191:18 *511:18 1.66988e-05
211 *192:17 *511:108 0
212 *202:8 *511:108 2.1898e-05
213 *202:19 *511:117 2.04447e-05
214 *440:12 *511:41 1.57686e-05
215 *441:10 *511:41 0.000220661
*RES
1 *1592:ZN *511:6 10 
2 *511:6 *511:8 55.1786 
3 *511:8 *511:10 5 
4 *511:10 *511:16 25.6257 
5 *511:16 *511:18 51.8214 
6 *511:18 *511:22 5.75 
7 *511:22 *2061:A 5 
8 *511:22 *511:39 38.1072 
9 *511:39 *511:41 37.5714 
10 *511:41 *2072:A 12.3571 
11 *511:41 *511:54 5 
12 *511:54 *511:56 55.25 
13 *511:56 *2083:A 5 
14 *511:56 *511:69 21.1429 
15 *511:69 *511:73 34.3214 
16 *511:73 *2162:A2 24.1072 
17 *511:16 *2049:A 10.75 
18 *511:10 *511:95 13.0329 
19 *511:95 *2044:A1 10 
20 *511:95 *511:106 11.3571 
21 *511:106 *511:108 40.25 
22 *511:108 *2036:A 5 
23 *511:108 *511:117 21.1786 
24 *511:117 *2145:A 5 
25 *511:117 *511:130 34.1786 
26 *511:130 *511:134 39.1072 
27 *511:134 *511:140 21.6071 
28 *511:140 *2104:A1 5 
29 *511:140 *511:149 15.6786 
30 *511:149 *511:153 27.6429 
31 *511:153 *511:155 13.8214 
32 *511:155 *511:157 1.60714 
33 *511:157 *511:159 4.32143 
34 *511:159 *511:167 23.0357 
35 *511:167 *1925:C2 5 
36 *511:167 *1841:B2 38.7857 
37 *511:159 *511:195 19.8571 
38 *511:195 *1604:A1 15.8929 
39 *511:195 *2094:A 37.9286 
40 *511:157 *1594:B1 10 
41 *511:155 *1593:B1 21.6071 
42 *511:153 *2112:A1 10 
43 *511:149 *2108:A1 10.75 
*END

*D_NET *512 0.000161014
*CONN
*I *1594:A I *D OAI21_X1
*I *1593:ZN O *D AOI21_X1
*CAP
1 *1594:A 6.09075e-05
2 *1593:ZN 6.09075e-05
3 *1594:A *1594:B2 2.08416e-06
4 *1594:A *1836:A1 0
5 *1594:A *1836:A4 0
6 *1593:B1 *1594:A 3.71145e-05
*RES
1 *1593:ZN *1594:A 16.6071 
*END

*D_NET *513 0.000586234
*CONN
*I *1844:A I *D OAI21_X1
*I *1836:A1 I *D NAND4_X1
*I *1594:ZN O *D OAI21_X1
*CAP
1 *1844:A 9.68008e-05
2 *1836:A1 8.05773e-05
3 *1594:ZN 0
4 *513:6 0.000177378
5 *1836:A1 *1593:B2 0
6 *1836:A1 *1594:B2 2.6099e-05
7 *1836:A1 *1836:A2 1.21774e-06
8 *1836:A1 *1836:A4 2.23871e-06
9 *1836:A1 *755:10 4.93896e-05
10 *1844:A *530:184 0
11 *1844:A *530:186 0
12 *1593:A *1836:A1 0
13 *1593:A *1844:A 0
14 *1594:A *1836:A1 0
15 *95:135 *1844:A 8.57252e-05
16 *511:155 *1844:A 5.57182e-06
17 *511:157 *1836:A1 1.11168e-06
18 *511:157 *1844:A 4.45767e-06
19 *511:159 *1836:A1 5.7416e-06
20 *511:195 *1836:A1 4.99246e-05
*RES
1 *1594:ZN *513:6 10 
2 *513:6 *1836:A1 21.75 
3 *513:6 *1844:A 21.2143 
*END

*D_NET *514 0.000103741
*CONN
*I *1597:A1 I *D NOR2_X1
*I *1595:Z O *D XOR2_X1
*CAP
1 *1597:A1 3.90651e-05
2 *1595:Z 3.90651e-05
3 *1597:A1 *1597:A2 6.74733e-06
4 *1597:A1 *1599:B 0
5 *1597:A1 *516:6 7.09501e-06
6 *1597:A1 *516:37 1.17688e-05
*RES
1 *1595:Z *1597:A1 14.1786 
*END

*D_NET *515 0.000146412
*CONN
*I *1597:A2 I *D NOR2_X1
*I *1596:Z O *D XOR2_X1
*CAP
1 *1597:A2 5.55284e-05
2 *1596:Z 5.55284e-05
3 *1597:A2 *516:6 7.62912e-06
4 *1597:A2 *516:37 2.09786e-05
5 *1597:A1 *1597:A2 6.74733e-06
6 *95:14 *1597:A2 0
*RES
1 *1596:Z *1597:A2 16.5357 
*END

*D_NET *516 0.00303196
*CONN
*I *1922:A2 I *D AOI22_X1
*I *1837:A2 I *D AOI22_X1
*I *2131:B1 I *D AOI22_X1
*I *1611:A2 I *D OR3_X1
*I *1598:B I *D XNOR2_X1
*I *1597:ZN O *D NOR2_X1
*CAP
1 *1922:A2 0.000144191
2 *1837:A2 1.27883e-05
3 *2131:B1 9.81292e-05
4 *1611:A2 2.96882e-05
5 *1598:B 0.000165032
6 *1597:ZN 4.78745e-06
7 *516:73 0.000188031
8 *516:43 0.00019679
9 *516:37 0.00043715
10 *516:6 0.000506945
11 *1598:B *1595:B 6.61334e-05
12 *1598:B *1596:B 2.16072e-07
13 *1598:B *1598:A 2.32935e-05
14 *1598:B *1599:B 2.36764e-05
15 *1598:B *1602:B 0
16 *1598:B *1606:A 2.75346e-06
17 *1598:B *1607:A 3.06855e-05
18 *1598:B *521:12 1.88334e-06
19 *1598:B *1269:20 1.42931e-06
20 *1598:B *1269:24 4.17886e-06
21 *1611:A2 *1611:A3 7.19036e-06
22 *1611:A2 *1837:B2 0
23 *1611:A2 *2130:A 5.48932e-05
24 *1837:A2 *1922:B1 0
25 *1837:A2 *1420:83 4.21607e-06
26 *1922:A2 *1839:B2 6.0901e-05
27 *1922:A2 *1922:A1 2.17097e-05
28 *1922:A2 *1922:B1 0.000128737
29 *1922:A2 *1102:89 0
30 *2131:B1 *1611:A3 4.32144e-07
31 *2131:B1 *2130:A 0
32 *2131:B1 *530:169 3.48838e-06
33 *2131:B1 *763:12 5.69552e-06
34 *516:37 *1595:B 1.39839e-06
35 *516:37 *1596:A 0
36 *516:37 *1599:B 0
37 *516:37 *1843:A 6.66886e-06
38 *516:37 *1843:B1 4.87536e-05
39 *516:37 *1843:B2 1.91498e-06
40 *516:37 *2170:B 0
41 *516:37 *2751:A 0.000159007
42 *516:43 *1611:A3 2.11458e-06
43 *516:43 *1837:B2 5.16586e-05
44 *516:43 *520:73 0.000134192
45 *516:43 *530:6 4.44177e-05
46 *516:73 *1837:B2 1.78091e-05
47 *516:73 *1839:A 8.11741e-05
48 *516:73 *1839:B2 4.43868e-06
49 *516:73 *1922:B1 4.24402e-05
50 *516:73 *520:73 0.000102376
51 *1597:A1 *516:6 7.09501e-06
52 *1597:A1 *516:37 1.17688e-05
53 *1597:A2 *516:6 7.62912e-06
54 *1597:A2 *516:37 2.09786e-05
55 *1924:B1 *1922:A2 0
56 *2131:A2 *2131:B1 1.27666e-06
57 *2132:A2 *2131:B1 7.1675e-06
58 *2238:D *516:37 1.93934e-05
59 *95:14 *516:37 0
60 *287:10 *1611:A2 7.72537e-06
61 *287:25 *1611:A2 2.39679e-06
62 *287:25 *2131:B1 1.72529e-05
63 *287:29 *2131:B1 5.86754e-06
*RES
1 *1597:ZN *516:6 5.75 
2 *516:6 *1598:B 37.5714 
3 *516:6 *516:37 45.7857 
4 *516:37 *516:43 17.2857 
5 *516:43 *1611:A2 18.7143 
6 *516:43 *2131:B1 25.8214 
7 *516:37 *516:73 7.71429 
8 *516:73 *1837:A2 11.25 
9 *516:73 *1922:A2 29.6429 
*END

*D_NET *517 0.000422709
*CONN
*I *1608:A2 I *D AOI22_X1
*I *1603:A2 I *D AOI22_X1
*I *1598:ZN O *D XNOR2_X1
*CAP
1 *1608:A2 4.05177e-05
2 *1603:A2 5.09139e-06
3 *1598:ZN 5.72429e-05
4 *517:8 0.000102852
5 *1603:A2 *1603:A1 2.75346e-06
6 *1603:A2 *1609:A1 7.72792e-06
7 *1603:A2 *521:12 6.85774e-07
8 *1608:A2 *1603:A1 8.77075e-05
9 *1608:A2 *1607:A 0
10 *1608:A2 *1993:A 0
11 *517:8 *1595:B 4.37715e-05
12 *517:8 *1603:A1 6.32202e-06
13 *517:8 *1603:B2 3.57834e-05
14 *517:8 *1606:A 1.61002e-06
15 *517:8 *1607:A 0
16 *517:8 *1608:B1 5.39659e-06
17 *517:8 *521:12 2.52469e-05
*RES
1 *1598:ZN *517:8 19.75 
2 *517:8 *1603:A2 10.75 
3 *517:8 *1608:A2 16 
*END

*D_NET *518 0.000111582
*CONN
*I *1601:A1 I *D NOR2_X1
*I *1599:Z O *D XOR2_X1
*CAP
1 *1601:A1 4.89073e-05
2 *1599:Z 4.89073e-05
3 *1601:A1 *520:49 1.37673e-05
*RES
1 *1599:Z *1601:A1 15.5714 
*END

*D_NET *519 8.41335e-05
*CONN
*I *1601:A2 I *D NOR2_X1
*I *1600:Z O *D XOR2_X1
*CAP
1 *1601:A2 2.50094e-05
2 *1600:Z 2.50094e-05
3 *1601:A2 *520:49 3.41146e-05
4 *1601:A2 *524:159 0
*RES
1 *1600:Z *1601:A2 13.25 
*END

*D_NET *520 0.00386072
*CONN
*I *1922:B1 I *D AOI22_X1
*I *1837:B1 I *D AOI22_X1
*I *1611:A3 I *D OR3_X1
*I *2130:B1 I *D OAI21_X1
*I *1602:B I *D XNOR2_X1
*I *2164:A2 I *D OAI22_X1
*I *2163:A I *D OAI21_X1
*I *1601:ZN O *D NOR2_X1
*CAP
1 *1922:B1 0.000148667
2 *1837:B1 1.6554e-05
3 *1611:A3 4.28112e-05
4 *2130:B1 0.000121026
5 *1602:B 0.000273736
6 *2164:A2 1.22811e-05
7 *2163:A 4.44857e-05
8 *1601:ZN 0
9 *520:73 0.000235729
10 *520:62 0.000186693
11 *520:49 0.000577239
12 *520:14 0.000173829
13 *520:8 0.000398898
14 *520:4 0.00039094
15 *1602:B *1598:A 3.09411e-06
16 *1602:B *1599:A 3.76667e-05
17 *1602:B *1599:B 6.1498e-05
18 *1602:B *1602:A 7.72792e-06
19 *1602:B *1607:A 2.36739e-05
20 *1602:B *2162:A1 0
21 *1611:A3 *530:6 2.00206e-05
22 *1837:B1 *2751:A 0
23 *1837:B1 *1420:83 1.67775e-05
24 *1922:B1 *1922:A1 5.47207e-05
25 *1922:B1 *1102:89 1.25652e-05
26 *1922:B1 *1420:14 2.3767e-06
27 *2130:B1 *2130:B2 8.43215e-07
28 *2130:B1 *2239:D 0
29 *2130:B1 *532:23 2.80734e-05
30 *2130:B1 *1271:8 3.5108e-06
31 *2130:B1 *1420:14 3.87635e-05
32 *2163:A *2163:B2 1.27666e-06
33 *520:8 *524:159 0
34 *520:14 *2162:A1 0
35 *520:49 *1600:A 3.8284e-05
36 *520:49 *1600:B 2.80727e-05
37 *520:49 *1840:A1 0
38 *520:49 *2170:A 0
39 *520:49 *2170:B 0
40 *520:49 *524:159 0
41 *520:49 *529:16 0
42 *520:49 *1269:67 0
43 *520:62 *1837:B2 1.46216e-05
44 *520:62 *1420:14 3.91488e-05
45 *520:73 *1837:B2 7.48003e-06
46 *520:73 *1420:14 5.96276e-05
47 *1598:B *1602:B 0
48 *1601:A1 *520:49 1.37673e-05
49 *1601:A2 *520:49 3.41146e-05
50 *1611:A2 *1611:A3 7.19036e-06
51 *1837:A2 *1922:B1 0
52 *1922:A2 *1922:B1 0.000128737
53 *2131:B1 *1611:A3 4.32144e-07
54 *2164:A1 *2163:A 2.25683e-05
55 *2164:A1 *2164:A2 1.59858e-05
56 *2164:B1 *520:14 0.000185381
57 *2164:B2 *2163:A 4.04707e-06
58 *2238:RN *520:49 9.62051e-07
59 *287:10 *1611:A3 4.37004e-05
60 *516:43 *1611:A3 2.11458e-06
61 *516:43 *520:73 0.000134192
62 *516:73 *1922:B1 4.24402e-05
63 *516:73 *520:73 0.000102376
*RES
1 *1601:ZN *520:4 5 
2 *520:4 *520:8 5.75 
3 *520:8 *520:14 21.1071 
4 *520:14 *2163:A 10.1786 
5 *520:14 *2164:A2 6.75 
6 *520:8 *1602:B 44.9286 
7 *520:4 *520:49 45.9286 
8 *520:49 *2130:B1 25.3214 
9 *520:49 *520:62 9.75 
10 *520:62 *1611:A3 16.25 
11 *520:62 *520:73 14.5 
12 *520:73 *1837:B1 11.75 
13 *520:73 *1922:B1 30.1429 
*END

*D_NET *521 0.000523566
*CONN
*I *1608:B1 I *D AOI22_X1
*I *1603:B1 I *D AOI22_X1
*I *1602:ZN O *D XNOR2_X1
*CAP
1 *1608:B1 3.27311e-05
2 *1603:B1 0
3 *1602:ZN 8.81943e-05
4 *521:12 0.000120925
5 *1608:B1 *1603:A1 6.82839e-05
6 *1608:B1 *1606:A 9.38792e-05
7 *1608:B1 *1608:B2 2.39679e-06
8 *1608:B1 *1609:A1 7.51308e-07
9 *1608:B1 *1609:A2 7.19036e-06
10 *521:12 *1595:B 1.23077e-06
11 *521:12 *1603:A1 3.65322e-06
12 *521:12 *1607:A 6.83382e-05
13 *521:12 *1609:A1 2.56243e-06
14 *521:12 *524:287 2.16072e-07
15 *1598:B *521:12 1.88334e-06
16 *1603:A2 *521:12 6.85774e-07
17 *517:8 *1608:B1 5.39659e-06
18 *517:8 *521:12 2.52469e-05
*RES
1 *1602:ZN *521:12 27.8214 
2 *521:12 *1603:B1 5 
3 *521:12 *1608:B1 21.5 
*END

*D_NET *522 0.000375582
*CONN
*I *1604:A2 I *D OR2_X1
*I *1603:ZN O *D AOI22_X1
*CAP
1 *1604:A2 0.000149319
2 *1603:ZN 0.000149319
3 *1604:A2 *1606:A 5.5481e-05
4 *1604:A2 *1609:A1 4.9678e-06
5 *1604:A2 *1609:A2 0
6 *1604:A2 *1269:12 0
7 *1604:A1 *1604:A2 2.75346e-06
8 *2094:A *1604:A2 1.37423e-05
*RES
1 *1603:ZN *1604:A2 37.2143 
*END

*D_NET *523 0.000107796
*CONN
*I *1836:A2 I *D NAND4_X1
*I *1604:ZN O *D OR2_X1
*CAP
1 *1836:A2 4.52785e-05
2 *1604:ZN 4.52785e-05
3 *1836:A2 *1836:A3 8.04708e-06
4 *1836:A1 *1836:A2 1.21774e-06
5 *2094:A *1836:A2 2.39679e-06
6 *511:195 *1836:A2 5.57776e-06
*RES
1 *1604:ZN *1836:A2 14.6786 
*END

*D_NET *524 0.0196309
*CONN
*I *2045:B1 I *D OAI21_X1
*I *2134:B1 I *D OAI21_X1
*I *2100:A1 I *D AND2_X1
*I *2101:B1 I *D OAI21_X1
*I *2109:B1 I *D OAI21_X1
*I *2113:B1 I *D OAI21_X1
*I *2105:B1 I *D OAI21_X1
*I *1609:A1 I *D OR2_X1
*I *2095:B1 I *D OAI21_X1
*I *1848:B I *D XNOR2_X2
*I *2039:B1 I *D OAI21_X1
*I *2056:A1 I *D AND2_X1
*I *2079:B1 I *D OAI21_X1
*I *2078:A1 I *D AND2_X1
*I *2084:B1 I *D OAI21_X1
*I *1845:A3 I *D NOR3_X1
*I *2163:B1 I *D OAI21_X1
*I *2089:A1 I *D AND2_X1
*I *2090:B1 I *D OAI21_X1
*I *2057:B1 I *D OAI21_X1
*I *2062:B1 I *D OAI21_X1
*I *2067:A1 I *D AND2_X1
*I *2073:B1 I *D OAI21_X1
*I *2068:B1 I *D OAI21_X1
*I *2050:B1 I *D OAI21_X1
*I *1605:ZN O *D AOI21_X4
*CAP
1 *2045:B1 0
2 *2134:B1 8.15016e-06
3 *2100:A1 9.61992e-05
4 *2101:B1 0
5 *2109:B1 0.000210203
6 *2113:B1 0.000138079
7 *2105:B1 0
8 *1609:A1 0.000142872
9 *2095:B1 2.41369e-05
10 *1848:B 0.000161637
11 *2039:B1 0
12 *2056:A1 4.01729e-05
13 *2079:B1 1.18596e-05
14 *2078:A1 3.50901e-05
15 *2084:B1 8.15016e-06
16 *1845:A3 8.30323e-05
17 *2163:B1 8.92303e-05
18 *2089:A1 0
19 *2090:B1 4.76405e-05
20 *2057:B1 1.76753e-05
21 *2062:B1 0
22 *2067:A1 4.28724e-05
23 *2073:B1 0.000107806
24 *2068:B1 0
25 *2050:B1 6.1238e-07
26 *1605:ZN 9.10213e-06
27 *524:337 0.000104912
28 *524:311 0.000468648
29 *524:302 0.000396607
30 *524:287 0.000456689
31 *524:266 0.000515454
32 *524:260 0.000506218
33 *524:254 0.000276954
34 *524:248 0.000498077
35 *524:222 0.000245851
36 *524:216 0.0006301
37 *524:210 0.000389204
38 *524:159 0.000476713
39 *524:144 0.000617459
40 *524:135 0.000189022
41 *524:122 0.000267792
42 *524:116 0.000437679
43 *524:112 0.000470777
44 *524:106 0.000264449
45 *524:104 0.000231792
46 *524:102 0.000388375
47 *524:87 0.000522604
48 *524:51 0.000181911
49 *524:45 0.000309328
50 *524:41 0.000366862
51 *524:37 0.000580564
52 *524:31 0.000371428
53 *524:18 0.000346237
54 *524:12 0.000240149
55 *524:10 0.000507024
56 *524:8 0.000516126
57 *1609:A1 *1603:A1 1.87369e-06
58 *1609:A1 *1608:B2 1.19597e-05
59 *1609:A1 *1609:A2 1.50235e-05
60 *1845:A3 *2170:B 0
61 *1845:A3 *1420:14 4.38669e-05
62 *1848:B *1848:A 7.19234e-06
63 *1848:B *2039:A 4.92112e-05
64 *2050:B1 *1513:B 2.15238e-06
65 *2056:A1 *1235:23 0
66 *2057:B1 *530:101 4.16485e-05
67 *2073:B1 *2068:A 4.45934e-05
68 *2073:B1 *2068:B2 0
69 *2073:B1 *2073:A 0.000249815
70 *2073:B1 *1248:10 0
71 *2079:B1 *530:60 1.80284e-05
72 *2090:B1 *2090:A 0.000146579
73 *2095:B1 *530:155 2.44263e-05
74 *2095:B1 *766:105 4.26218e-05
75 *2100:A1 *1574:A2 1.22315e-05
76 *2100:A1 *530:206 5.01004e-05
77 *2109:B1 *2109:A 1.21774e-06
78 *2109:B1 *2111:A1 8.00908e-05
79 *2113:B1 *2111:A1 0.000169508
80 *2113:B1 *2113:B2 3.09411e-06
81 *2113:B1 *2241:D 3.47324e-05
82 *2113:B1 *530:196 7.19036e-06
83 *524:10 *1494:B 2.25685e-05
84 *524:10 *2047:A1 0.000139208
85 *524:18 *1513:B 1.59687e-05
86 *524:18 *1947:B 0
87 *524:18 *2253:CK 0
88 *524:31 *1513:B 4.92317e-06
89 *524:31 *1947:B 0
90 *524:31 *2050:B2 0.000324354
91 *524:31 *1235:8 2.4406e-05
92 *524:31 *1235:23 6.70982e-05
93 *524:37 *1235:8 5.62244e-05
94 *524:41 *2059:A1 0
95 *524:41 *2062:A 0
96 *524:41 *2251:D 0
97 *524:45 *2062:A 0
98 *524:45 *2062:B2 0.00034028
99 *524:45 *2064:A1 0
100 *524:45 *2250:D 3.27287e-05
101 *524:45 *530:66 0
102 *524:51 *2073:A 0
103 *524:51 *530:66 0
104 *524:87 *2057:B2 2.39679e-06
105 *524:102 *1542:B2 1.8031e-05
106 *524:102 *1545:A2 6.54588e-06
107 *524:102 *2057:B2 3.23338e-05
108 *524:104 *1545:A2 1.66988e-05
109 *524:104 *1980:B 7.30562e-05
110 *524:104 *2248:D 0
111 *524:104 *766:10 9.96023e-05
112 *524:112 *2084:A 1.21774e-06
113 *524:112 *2084:B2 2.75346e-06
114 *524:116 *2084:A 3.65322e-06
115 *524:116 *2084:B2 4.97191e-06
116 *524:116 *2246:CK 8.26038e-06
117 *524:116 *530:29 3.15435e-06
118 *524:116 *530:31 0.000131057
119 *524:122 *2246:D 7.24029e-05
120 *524:159 *1600:A 0
121 *524:159 *1840:A3 1.04006e-05
122 *524:159 *2168:A 4.79202e-06
123 *524:159 *2170:A 3.20394e-05
124 *524:159 *2170:B 3.19164e-06
125 *524:159 *532:23 3.65634e-05
126 *524:210 *1535:A1 4.79658e-06
127 *524:210 *2041:A1 0
128 *524:210 *2045:B2 1.68643e-06
129 *524:210 *2047:A1 1.32348e-05
130 *524:210 *2050:A 0
131 *524:210 *2253:CK 0
132 *524:216 *1933:B 0
133 *524:216 *2041:A1 0
134 *524:216 *2045:B2 2.39679e-06
135 *524:216 *530:122 2.02354e-05
136 *524:216 *1419:66 0.000301055
137 *524:222 *1541:B 8.14262e-05
138 *524:222 *2039:A 2.75346e-06
139 *524:222 *2255:D 2.16578e-05
140 *524:222 *1419:58 1.39755e-05
141 *524:248 *2255:D 1.55645e-05
142 *524:248 *2256:D 3.37896e-05
143 *524:248 *2256:CK 0.00015598
144 *524:248 *530:221 9.98872e-05
145 *524:248 *1419:66 0
146 *524:254 *2000:A 0
147 *524:254 *2029:A 1.19252e-05
148 *524:254 *530:215 4.87096e-06
149 *524:254 *530:221 1.21774e-06
150 *524:254 *1243:10 1.24656e-05
151 *524:260 *2101:B2 0.000129089
152 *524:260 *2244:D 4.42523e-06
153 *524:266 *2092:A1 3.50317e-05
154 *524:266 *2101:B2 7.69187e-05
155 *524:266 *2244:CK 0.000259327
156 *524:266 *2245:D 2.86792e-05
157 *524:266 *2245:CK 0.000277099
158 *524:266 *766:105 0.000468871
159 *524:266 *766:146 2.57072e-05
160 *524:287 *2353:A 0
161 *524:302 *2000:A 0.000143734
162 *524:302 *530:206 9.74193e-06
163 *524:311 *530:196 6.72396e-05
164 *524:311 *530:206 2.75346e-06
165 *1501:B2 *524:10 2.83702e-05
166 *1511:A2 *524:10 4.17885e-06
167 *1514:B *524:31 2.12997e-05
168 *1515:A2 *524:87 3.26291e-06
169 *1520:A1 *524:87 0
170 *1542:B1 *524:102 7.72792e-06
171 *1545:B1 *524:102 1.56482e-05
172 *1546:A1 *524:102 2.5928e-05
173 *1583:A1 *524:87 0
174 *1583:A3 *524:102 0
175 *1584:A *2057:B1 0
176 *1584:B *524:87 1.2452e-05
177 *1584:C2 *524:87 0
178 *1585:C1 *524:10 5.81144e-05
179 *1592:A1 *524:8 1.0794e-06
180 *1601:A2 *524:159 0
181 *1603:A2 *1609:A1 7.72792e-06
182 *1604:A2 *1609:A1 4.9678e-06
183 *1608:B1 *1609:A1 7.51308e-07
184 *1934:B *524:216 0
185 *1998:A2 *524:302 0
186 *1999:A2 *524:302 9.62051e-07
187 *2010:A2 *524:116 0
188 *2025:B1 *524:10 4.01853e-05
189 *2025:B2 *524:10 7.78863e-06
190 *2040:B1 *524:248 0
191 *2047:A2 *524:210 1.95732e-05
192 *2047:A2 *524:216 2.42329e-05
193 *2051:A *524:18 3.62278e-05
194 *2051:A *524:210 2.21194e-06
195 *2056:A2 *2056:A1 2.75346e-06
196 *2058:B1 *2056:A1 1.28122e-06
197 *2059:A2 *524:41 0
198 *2067:A2 *2067:A1 2.75346e-06
199 *2069:B1 *2067:A1 1.27691e-05
200 *2069:B2 *2067:A1 7.19036e-06
201 *2069:B2 *524:51 0.000171597
202 *2070:A2 *2073:B1 4.42134e-05
203 *2078:A2 *524:106 6.81033e-07
204 *2078:A2 *524:112 3.13512e-06
205 *2080:B1 *524:106 4.33701e-06
206 *2080:B2 *2079:B1 7.19036e-06
207 *2085:B2 *2084:B1 1.76665e-06
208 *2085:B2 *524:112 0
209 *2089:A2 *524:135 2.39679e-06
210 *2089:A2 *524:144 1.25215e-05
211 *2091:A *2090:B1 2.17662e-05
212 *2091:A *524:135 2.55787e-06
213 *2091:B1 *524:135 0
214 *2096:B1 *524:287 2.38278e-05
215 *2104:A2 *2109:B1 0
216 *2108:A1 *2109:B1 0
217 *2114:B2 *2113:B1 9.44188e-05
218 *2162:A2 *524:135 6.98513e-06
219 *2162:A2 *524:144 2.5866e-05
220 *2162:A2 *524:159 2.39679e-06
221 *2164:A1 *2163:B1 4.12911e-06
222 *2164:B1 *2163:B1 0
223 *2164:B1 *524:159 1.10223e-05
224 *2238:RN *524:159 0
225 *2244:RN *524:302 2.24327e-06
226 *2251:RN *524:37 7.87807e-06
227 *61:28 *2109:B1 0
228 *61:30 *2109:B1 0
229 *61:30 *524:311 4.4061e-05
230 *61:38 *2113:B1 0
231 *61:38 *524:302 0
232 *61:38 *524:311 0
233 *61:42 *524:302 0
234 *61:165 *524:248 2.18572e-05
235 *61:227 *2109:B1 0
236 *95:22 *2078:A1 0
237 *95:22 *2079:B1 1.86809e-06
238 *95:22 *524:112 0
239 *95:83 *524:216 0
240 *95:230 *2113:B1 4.76429e-07
241 *95:267 *2100:A1 5.56388e-06
242 *95:267 *524:266 2.01721e-05
243 *95:280 *2100:A1 8.40361e-06
244 *99:12 *1848:B 1.30304e-05
245 *99:12 *524:222 3.5628e-06
246 *99:37 *524:31 0
247 *99:43 *524:31 0
248 *99:45 *524:31 0
249 *99:45 *524:37 0
250 *136:8 *2073:B1 1.68643e-06
251 *147:8 *524:104 0.000429909
252 *147:8 *524:106 0.000119077
253 *147:8 *524:112 5.56848e-05
254 *167:10 *524:302 9.62051e-07
255 *171:12 *524:287 0
256 *174:10 *524:116 0
257 *178:8 *524:116 0
258 *182:12 *2067:A1 8.62199e-06
259 *432:8 *524:31 2.51112e-05
260 *433:14 *2056:A1 1.25189e-05
261 *433:14 *524:37 0
262 *433:14 *524:87 0
263 *439:12 *524:87 0
264 *499:12 *524:87 2.34839e-05
265 *499:12 *524:102 6.59997e-06
266 *511:8 *524:10 0
267 *511:56 *524:112 0
268 *511:69 *524:116 0
269 *511:73 *524:122 0
270 *511:73 *524:135 0
271 *511:149 *2109:B1 0
272 *520:8 *524:159 0
273 *520:49 *524:159 0
274 *521:12 *1609:A1 2.56243e-06
275 *521:12 *524:287 2.16072e-07
*RES
1 *1605:ZN *524:8 10.75 
2 *524:8 *524:10 64.7143 
3 *524:10 *524:12 5 
4 *524:12 *524:18 18.8929 
5 *524:18 *2050:B1 10.2857 
6 *524:18 *524:31 32.25 
7 *524:31 *524:37 17.6071 
8 *524:37 *524:41 23.5714 
9 *524:41 *524:45 28.1429 
10 *524:45 *524:51 15.5 
11 *524:51 *2068:B1 5 
12 *524:51 *2073:B1 33.5714 
13 *524:45 *2067:A1 15.25 
14 *524:41 *2062:B1 10 
15 *524:37 *524:87 30.25 
16 *524:87 *2057:B1 17.2857 
17 *524:87 *524:102 28.25 
18 *524:102 *524:104 32.8214 
19 *524:104 *524:106 6.35715 
20 *524:106 *524:112 25.2143 
21 *524:112 *524:116 37.25 
22 *524:116 *524:122 24.9643 
23 *524:122 *2090:B1 23.3929 
24 *524:122 *524:135 5.75 
25 *524:135 *2089:A1 5 
26 *524:135 *524:144 19.75 
27 *524:144 *2163:B1 19.75 
28 *524:144 *524:159 47.5357 
29 *524:159 *1845:A3 25.4286 
30 *524:112 *2084:B1 5.92857 
31 *524:106 *2078:A1 13.25 
32 *524:104 *2079:B1 11.75 
33 *524:31 *2056:A1 14.25 
34 *524:12 *524:210 13.4286 
35 *524:210 *524:216 40.6786 
36 *524:216 *524:222 16.6786 
37 *524:222 *2039:B1 5 
38 *524:222 *1848:B 32.7143 
39 *524:216 *524:248 41.9286 
40 *524:248 *524:254 22.7857 
41 *524:254 *524:260 13.4643 
42 *524:260 *524:266 41.9643 
43 *524:266 *2095:B1 13.5357 
44 *524:266 *524:287 37.3572 
45 *524:287 *1609:A1 20.3571 
46 *524:260 *524:302 35.6786 
47 *524:302 *2105:B1 5 
48 *524:302 *524:311 19.25 
49 *524:311 *2113:B1 30 
50 *524:311 *2109:B1 31.5 
51 *524:254 *524:337 0.928572 
52 *524:337 *2101:B1 5 
53 *524:337 *2100:A1 27.4643 
54 *524:248 *2134:B1 5.92857 
55 *524:210 *2045:B1 5 
*END

*D_NET *525 0.000106831
*CONN
*I *1608:A1 I *D AOI22_X1
*I *1606:ZN O *D INV_X1
*CAP
1 *1608:A1 5.20001e-05
2 *1606:ZN 5.20001e-05
3 *1608:A1 *1608:B2 2.83077e-06
4 *2094:A *1608:A1 0
*RES
1 *1606:ZN *1608:A1 15.5714 
*END

*D_NET *526 9.44678e-05
*CONN
*I *1608:B2 I *D AOI22_X1
*I *1607:ZN O *D INV_X1
*CAP
1 *1608:B2 3.86403e-05
2 *1607:ZN 3.86403e-05
3 *1608:A1 *1608:B2 2.83077e-06
4 *1608:B1 *1608:B2 2.39679e-06
5 *1609:A1 *1608:B2 1.19597e-05
*RES
1 *1607:ZN *1608:B2 14.1786 
*END

*D_NET *527 0.000237951
*CONN
*I *1609:A2 I *D OR2_X1
*I *1608:ZN O *D AOI22_X1
*CAP
1 *1609:A2 0.00010755
2 *1608:ZN 0.00010755
3 *1609:A2 *1606:A 0
4 *1604:A1 *1609:A2 6.38328e-07
5 *1604:A2 *1609:A2 0
6 *1608:B1 *1609:A2 7.19036e-06
7 *1609:A1 *1609:A2 1.50235e-05
8 *2094:A *1609:A2 0
*RES
1 *1608:ZN *1609:A2 21.1786 
*END

*D_NET *528 0.000171395
*CONN
*I *1836:A3 I *D NAND4_X1
*I *1609:ZN O *D OR2_X1
*CAP
1 *1836:A3 8.13159e-05
2 *1609:ZN 8.13159e-05
3 *1604:A1 *1836:A3 7.16188e-07
4 *1836:A2 *1836:A3 8.04708e-06
*RES
1 *1609:ZN *1836:A3 18.3214 
*END

*D_NET *529 0.00162697
*CONN
*I *2752:A I *D BUF_X4
*I *2130:B2 I *D OAI21_X1
*I *1881:S I *D MUX2_X1
*I *1610:ZN O *D NOR2_X2
*CAP
1 *2752:A 0
2 *2130:B2 1.43982e-05
3 *1881:S 0.000129267
4 *1610:ZN 2.99759e-05
5 *529:18 0.00022786
6 *529:16 0.000387088
7 *529:6 0.000332868
8 *1881:S *1881:A 8.43215e-07
9 *1881:S *2131:B2 0
10 *1881:S *1271:10 0
11 *1881:S *1420:62 9.79823e-05
12 *529:6 *530:6 6.06867e-06
13 *529:6 *1269:67 1.58933e-05
14 *529:16 *1840:A1 1.11786e-05
15 *529:16 *1840:A3 0
16 *529:16 *2169:A 8.30282e-06
17 *529:16 *763:12 2.03835e-05
18 *529:16 *1270:8 0
19 *529:16 *1270:30 0
20 *529:16 *1270:53 0
21 *529:18 *2131:B2 0
22 *1845:A2 *529:16 1.87369e-06
23 *2130:B1 *2130:B2 8.43215e-07
24 *2132:A2 *1881:S 6.86795e-05
25 *2132:A2 *2130:B2 0
26 *2132:A2 *529:18 0.000258314
27 *286:12 *529:16 1.51469e-05
28 *520:49 *529:16 0
*RES
1 *1610:ZN *529:6 8.75 
2 *529:6 *529:16 45.75 
3 *529:16 *529:18 13.8214 
4 *529:18 *1881:S 26.9643 
5 *529:18 *2130:B2 11.25 
6 *529:6 *2752:A 5 
*END

*D_NET *530 0.0173697
*CONN
*I *2109:A I *D OAI21_X1
*I *2113:A I *D OAI21_X1
*I *2105:A I *D OAI21_X1
*I *2134:A I *D OAI21_X1
*I *2039:A I *D OAI21_X1
*I *2101:A I *D OAI21_X1
*I *1612:A2 I *D NOR2_X1
*I *2095:A I *D OAI21_X1
*I *2079:A I *D OAI21_X1
*I *2045:A I *D OAI21_X1
*I *2050:A I *D OAI21_X1
*I *2057:A I *D OAI21_X1
*I *2062:A I *D OAI21_X1
*I *2068:A I *D OAI21_X1
*I *2073:A I *D OAI21_X1
*I *2084:A I *D OAI21_X1
*I *2090:A I *D OAI21_X1
*I *1611:ZN O *D OR3_X1
*CAP
1 *2109:A 0.000173153
2 *2113:A 0
3 *2105:A 0
4 *2134:A 0
5 *2039:A 2.62218e-05
6 *2101:A 0
7 *1612:A2 3.39926e-05
8 *2095:A 0
9 *2079:A 0
10 *2045:A 3.54915e-05
11 *2050:A 0.000204717
12 *2057:A 7.56767e-06
13 *2062:A 0.000110425
14 *2068:A 2.13741e-05
15 *2073:A 9.28075e-05
16 *2084:A 6.45907e-06
17 *2090:A 0.000153129
18 *1611:ZN 0
19 *530:221 0.00032959
20 *530:215 0.000468357
21 *530:206 0.000453755
22 *530:196 0.000611891
23 *530:186 0.000490821
24 *530:184 0.000596295
25 *530:169 0.000683297
26 *530:167 0.000393857
27 *530:155 0.000188007
28 *530:122 0.000371768
29 *530:118 0.000424525
30 *530:101 0.000522788
31 *530:66 0.000246129
32 *530:64 0.0004453
33 *530:60 0.000656475
34 *530:46 0.00043515
35 *530:31 0.00044017
36 *530:29 0.000448645
37 *530:14 0.000198087
38 *530:6 0.000606125
39 *530:4 0.000591952
40 *1612:A2 *1835:B 6.38328e-07
41 *1612:A2 *1836:A4 0
42 *2045:A *1535:A1 0
43 *2045:A *2045:B2 2.4656e-05
44 *2050:A *1513:B 1.1025e-05
45 *2050:A *1516:A 0
46 *2050:A *2045:B2 3.02372e-05
47 *2050:A *2047:A1 0
48 *2062:A *1526:A 0
49 *2062:A *2062:B2 0
50 *2062:A *2064:A1 0.000180346
51 *2062:A *1418:43 6.3924e-06
52 *2073:A *2068:B2 0
53 *2090:A *2090:B2 7.16188e-07
54 *2090:A *2246:D 0.000429603
55 *2109:A *2109:B2 0.000336559
56 *2109:A *1421:69 1.30865e-05
57 *530:6 *1599:A 1.04248e-05
58 *530:6 *1610:A1 3.19164e-07
59 *530:6 *1610:A2 2.382e-05
60 *530:6 *1840:A1 0
61 *530:6 *1843:B1 0
62 *530:6 *1843:B2 0
63 *530:6 *1989:A 0
64 *530:6 *2169:A 0
65 *530:6 *2170:B 0
66 *530:6 *1269:67 0
67 *530:14 *2246:D 8.80297e-06
68 *530:29 *2246:D 3.23338e-05
69 *530:29 *2246:CK 4.97191e-06
70 *530:31 *2246:D 7.72537e-06
71 *530:31 *2246:CK 2.75346e-06
72 *530:46 *2247:D 0.000105832
73 *530:60 *2075:A1 2.52965e-06
74 *530:64 *1521:A 9.26023e-08
75 *530:64 *1530:A 0
76 *530:64 *1248:27 3.23723e-07
77 *530:66 *2064:A1 0.000198378
78 *530:101 *1528:B 1.78252e-06
79 *530:101 *1531:B2 0.000118035
80 *530:101 *2057:B2 5.77899e-05
81 *530:118 *1516:B 0
82 *530:118 *2252:D 0
83 *530:122 *1516:A 0
84 *530:155 *1985:B 2.48755e-05
85 *530:155 *1990:A 0
86 *530:155 *2095:B2 0.000262173
87 *530:155 *2246:CK 0.000209903
88 *530:155 *766:105 8.33651e-05
89 *530:155 *766:109 5.04324e-05
90 *530:155 *1418:105 0.000102817
91 *530:169 *1835:A 0
92 *530:169 *1835:C2 0
93 *530:169 *1847:B2 2.22337e-05
94 *530:169 *1922:A1 7.9355e-05
95 *530:169 *2130:A 9.22998e-06
96 *530:184 *1833:A 0
97 *530:184 *1835:A 0
98 *530:184 *1847:B2 4.74162e-05
99 *530:206 *1993:B 7.14424e-06
100 *530:206 *766:176 3.36627e-05
101 *530:215 *2029:A 2.24534e-05
102 *530:221 *2256:D 3.32585e-05
103 *530:221 *1419:58 0
104 *1529:A1 *530:64 2.17016e-05
105 *1531:A *530:101 1.46625e-05
106 *1532:A1 *530:101 0
107 *1582:B *530:101 7.48054e-05
108 *1583:A2 *530:101 0
109 *1583:A4 *530:101 0.000225157
110 *1611:A3 *530:6 2.00206e-05
111 *1844:A *530:184 0
112 *1844:A *530:186 0
113 *1848:B *2039:A 4.92112e-05
114 *1877:C2 *530:184 1.18572e-05
115 *1924:A *530:169 2.68094e-05
116 *1929:A2 *530:221 0.000112551
117 *2007:B1 *530:6 0
118 *2007:B2 *530:6 6.07779e-06
119 *2040:B1 *530:221 6.5029e-05
120 *2040:B2 *530:221 0
121 *2046:B2 *2045:A 3.49085e-06
122 *2047:A2 *2050:A 2.21644e-05
123 *2047:A2 *530:122 6.11168e-05
124 *2051:A *2050:A 0
125 *2057:B1 *530:101 4.16485e-05
126 *2058:A *2057:A 0
127 *2058:B2 *2057:A 0
128 *2059:A2 *2062:A 0.000282972
129 *2070:A2 *2073:A 5.20238e-07
130 *2070:A2 *530:66 8.94584e-06
131 *2073:B1 *2068:A 4.45934e-05
132 *2073:B1 *2073:A 0.000249815
133 *2074:B2 *2073:A 3.65322e-06
134 *2079:B1 *530:60 1.80284e-05
135 *2080:A *530:60 3.77534e-05
136 *2080:B2 *530:60 9.64572e-06
137 *2085:A *530:31 0
138 *2085:B1 *2084:A 0
139 *2085:B1 *530:46 6.86795e-05
140 *2085:B2 *2084:A 7.16188e-07
141 *2090:B1 *2090:A 0.000146579
142 *2095:B1 *530:155 2.44263e-05
143 *2096:B1 *530:155 0
144 *2096:B2 *530:155 7.16188e-07
145 *2100:A1 *530:206 5.01004e-05
146 *2106:B2 *530:196 0
147 *2106:B2 *530:206 5.28042e-06
148 *2107:A2 *2109:A 0
149 *2108:A2 *2109:A 0
150 *2109:B1 *2109:A 1.21774e-06
151 *2110:B2 *2109:A 4.12911e-06
152 *2113:B1 *530:196 7.19036e-06
153 *2114:B1 *530:186 0
154 *2118:A *530:118 0.000350592
155 *2131:B1 *530:169 3.48838e-06
156 *53:27 *2109:A 2.99187e-06
157 *61:38 *530:196 0
158 *61:79 *530:60 4.32759e-06
159 *61:92 *530:64 4.32144e-07
160 *61:153 *530:221 6.707e-06
161 *61:165 *530:221 6.11168e-05
162 *79:16 *530:184 0
163 *79:16 *530:186 0
164 *95:10 *530:6 1.78043e-05
165 *95:14 *530:6 0.000155393
166 *95:16 *530:6 2.67652e-05
167 *95:16 *530:29 4.32144e-07
168 *95:16 *530:31 4.51129e-05
169 *95:22 *530:31 3.58094e-06
170 *95:22 *530:46 3.0658e-05
171 *95:22 *530:60 4.15369e-06
172 *95:28 *530:60 7.97674e-06
173 *95:34 *530:60 0.00010704
174 *95:34 *530:64 0.000273237
175 *95:38 *2062:A 1.72426e-05
176 *95:38 *530:66 0.000234989
177 *95:135 *530:186 0
178 *95:151 *1612:A2 1.43531e-05
179 *95:240 *530:196 1.05893e-05
180 *95:251 *530:206 0.000231324
181 *95:280 *530:206 1.05415e-05
182 *95:280 *530:215 5.65825e-05
183 *95:282 *530:215 0.000154741
184 *95:282 *530:221 5.80092e-05
185 *99:12 *2039:A 4.86762e-05
186 *99:16 *2050:A 0
187 *99:16 *530:122 0
188 *136:8 *2068:A 4.45934e-05
189 *167:10 *530:206 0
190 *173:12 *530:6 1.28122e-06
191 *174:10 *530:6 0
192 *174:10 *530:29 0
193 *285:8 *530:6 1.75824e-05
194 *287:10 *530:6 5.22944e-06
195 *287:29 *530:169 1.07743e-05
196 *287:44 *530:169 1.84537e-05
197 *435:10 *530:122 0
198 *449:8 *530:101 0.000145066
199 *499:12 *2057:A 2.52965e-06
200 *516:43 *530:6 4.44177e-05
201 *524:41 *2062:A 0
202 *524:45 *2062:A 0
203 *524:45 *530:66 0
204 *524:51 *2073:A 0
205 *524:51 *530:66 0
206 *524:112 *2084:A 1.21774e-06
207 *524:116 *2084:A 3.65322e-06
208 *524:116 *530:29 3.15435e-06
209 *524:116 *530:31 0.000131057
210 *524:210 *2050:A 0
211 *524:216 *530:122 2.02354e-05
212 *524:222 *2039:A 2.75346e-06
213 *524:248 *530:221 9.98872e-05
214 *524:254 *530:215 4.87096e-06
215 *524:254 *530:221 1.21774e-06
216 *524:302 *530:206 9.74193e-06
217 *524:311 *530:196 6.72396e-05
218 *524:311 *530:206 2.75346e-06
219 *529:6 *530:6 6.06867e-06
*RES
1 *1611:ZN *530:4 5 
2 *530:4 *530:6 68.75 
3 *530:6 *530:14 6.92857 
4 *530:14 *2090:A 36.7857 
5 *530:14 *530:29 8.75 
6 *530:29 *530:31 30.25 
7 *530:31 *2084:A 5.75 
8 *530:31 *530:46 34.6429 
9 *530:46 *530:60 28.4643 
10 *530:60 *530:64 31.75 
11 *530:64 *530:66 21.2857 
12 *530:66 *2073:A 24.5714 
13 *530:66 *2068:A 14.25 
14 *530:64 *2062:A 30.1072 
15 *530:60 *530:101 41.2143 
16 *530:101 *2057:A 10.75 
17 *530:101 *530:118 43.3929 
18 *530:118 *530:122 20.25 
19 *530:122 *2050:A 31.8572 
20 *530:122 *2045:A 13.6429 
21 *530:46 *2079:A 5 
22 *530:29 *530:155 46.2857 
23 *530:155 *2095:A 5 
24 *1611:ZN *530:167 10 
25 *530:167 *530:169 48.4286 
26 *530:169 *1612:A2 13.75 
27 *530:169 *530:184 32.3572 
28 *530:184 *530:186 16.25 
29 *530:186 *530:196 44.25 
30 *530:196 *530:206 48.2143 
31 *530:206 *2101:A 5 
32 *530:206 *530:215 22.5357 
33 *530:215 *530:221 47.2857 
34 *530:221 *2039:A 14.75 
35 *530:215 *2134:A 5 
36 *530:196 *2105:A 5 
37 *530:186 *2113:A 5 
38 *530:184 *2109:A 39.75 
*END

*D_NET *531 6.1873e-05
*CONN
*I *1835:A I *D AOI211_X1
*I *1612:ZN O *D NOR2_X1
*CAP
1 *1835:A 3.09365e-05
2 *1612:ZN 3.09365e-05
3 *1835:A *1835:C1 0
4 *530:169 *1835:A 0
5 *530:184 *1835:A 0
*RES
1 *1612:ZN *1835:A 22.9643 
*END

*D_NET *532 0.00206764
*CONN
*I *1614:B I *D XNOR2_X1
*I *1880:S I *D MUX2_X1
*I *1840:A3 I *D NOR3_X1
*I *1613:ZN O *D NAND2_X1
*CAP
1 *1614:B 0
2 *1880:S 2.23284e-05
3 *1840:A3 0.000150849
4 *1613:ZN 1.50803e-05
5 *532:36 0.000451185
6 *532:23 0.000776063
7 *532:6 0.000468478
8 *1840:A3 *1613:A1 1.32323e-05
9 *1840:A3 *1840:A1 1.72426e-05
10 *1880:S *1880:A 7.72792e-06
11 *532:23 *1880:A 2.15368e-05
12 *532:23 *1880:B 1.92715e-05
13 *532:36 *1838:A1 0
14 *532:36 *1880:B 0
15 *532:36 *1258:113 0
16 *1881:B *1880:S 1.045e-05
17 *1881:B *532:36 1.91582e-05
18 *2130:B1 *532:23 2.80734e-05
19 *2225:D *532:36 0
20 *2233:D *1880:S 0
21 *2233:D *532:23 0
22 *524:159 *1840:A3 1.04006e-05
23 *524:159 *532:23 3.65634e-05
24 *529:16 *1840:A3 0
*RES
1 *1613:ZN *532:6 6.60714 
2 *532:6 *1840:A3 31.0714 
3 *532:6 *532:23 37.75 
4 *532:23 *1880:S 12.3571 
5 *532:23 *532:36 49.7857 
6 *532:36 *1614:B 10 
*END

*D_NET *533 0.00024885
*CONN
*I *1616:A1 I *D NOR2_X1
*I *1614:ZN O *D XNOR2_X1
*CAP
1 *1616:A1 0.000123816
2 *1614:ZN 0.000123816
3 *1616:A1 *1616:A2 1.21774e-06
4 *1616:A1 *1835:B 0
5 *1616:A1 *1421:14 0
*RES
1 *1614:ZN *1616:A1 32.8214 
*END

*D_NET *534 0.00016353
*CONN
*I *1616:A2 I *D NOR2_X1
*I *1615:Z O *D XOR2_X1
*CAP
1 *1616:A2 7.00479e-05
2 *1615:Z 7.00479e-05
3 *1616:A2 *1615:A 1.85634e-05
4 *1616:A2 *535:10 3.65322e-06
5 *1616:A2 *1421:14 0
6 *1616:A1 *1616:A2 1.21774e-06
7 *60:10 *1616:A2 0
*RES
1 *1615:Z *1616:A2 17.6786 
*END

*D_NET *535 0.000423476
*CONN
*I *1882:A1 I *D NOR2_X1
*I *1835:B I *D AOI211_X1
*I *1616:ZN O *D NOR2_X1
*CAP
1 *1882:A1 0
2 *1835:B 0.000136776
3 *1616:ZN 4.96767e-05
4 *535:10 0.000186453
5 *1835:B *1833:B 0
6 *1835:B *1835:C1 3.90865e-05
7 *1835:B *1914:B2 7.19234e-06
8 *1612:A2 *1835:B 6.38328e-07
9 *1616:A1 *1835:B 0
10 *1616:A2 *535:10 3.65322e-06
11 *95:162 *1835:B 0
12 *95:162 *535:10 0
*RES
1 *1616:ZN *535:10 10.6429 
2 *535:10 *1835:B 19.75 
3 *535:10 *1882:A1 5 
*END

*D_NET *536 0.000368526
*CONN
*I *1664:A2 I *D AOI22_X1
*I *1618:B I *D XOR2_X1
*I *1617:Z O *D XOR2_X1
*CAP
1 *1664:A2 5.81082e-05
2 *1618:B 0
3 *1617:Z 4.86058e-05
4 *536:10 0.000106714
5 *1664:A2 *1618:A 3.78433e-05
6 *1664:A2 *542:12 0
7 *536:10 *1623:A 0.000108203
8 *536:10 *751:8 9.05228e-06
*RES
1 *1617:Z *536:10 22.7143 
2 *536:10 *1618:B 5 
3 *536:10 *1664:A2 11.1786 
*END

*D_NET *537 0.000350335
*CONN
*I *1619:A2 I *D NAND2_X1
*I *1623:B I *D XOR2_X1
*I *1618:Z O *D XOR2_X1
*CAP
1 *1619:A2 5.36695e-05
2 *1623:B 0
3 *1618:Z 4.53109e-05
4 *537:8 9.89803e-05
5 *1619:A2 *1832:A2 0
6 *1619:A2 *751:8 1.46923e-05
7 *537:8 *1623:A 0.000134734
8 *537:8 *751:8 2.94802e-06
*RES
1 *1618:Z *537:8 17.7143 
2 *537:8 *1623:B 10 
3 *537:8 *1619:A2 15.5714 
*END

*D_NET *538 9.04168e-05
*CONN
*I *1671:A1 I *D NAND4_X1
*I *1619:ZN O *D NAND2_X1
*CAP
1 *1671:A1 4.2629e-05
2 *1619:ZN 4.2629e-05
3 *1671:A1 *1617:B 0
4 *1671:A1 *1671:A3 1.21774e-06
5 *1671:A1 *1832:A1 3.94106e-06
*RES
1 *1619:ZN *1671:A1 14.1786 
*END

*D_NET *539 0.000496748
*CONN
*I *1621:B I *D XNOR2_X1
*I *1669:A2 I *D OAI22_X1
*I *1620:ZN O *D XNOR2_X1
*CAP
1 *1621:B 8.4093e-06
2 *1669:A2 3.66616e-05
3 *1620:ZN 3.90384e-05
4 *539:10 8.41094e-05
5 *1669:A2 *1620:B 4.81724e-05
6 *1669:A2 *1666:A 0.000131821
7 *539:10 *1620:A 9.57492e-07
8 *539:10 *1620:B 0.000107663
9 *539:10 *1621:A 0
10 *539:10 *1666:A 3.99139e-05
*RES
1 *1620:ZN *539:10 17.4286 
2 *539:10 *1669:A2 17.7857 
3 *539:10 *1621:B 10.75 
*END

*D_NET *540 0.000514854
*CONN
*I *1665:A2 I *D AND2_X1
*I *1622:B I *D XNOR2_X1
*I *1621:ZN O *D XNOR2_X1
*CAP
1 *1665:A2 4.46616e-05
2 *1622:B 1.46302e-05
3 *1621:ZN 0.000100629
4 *540:6 0.000159921
5 *1622:B *1622:A 1.78501e-05
6 *1622:B *1669:B1 9.57492e-07
7 *1665:A2 *1629:A 6.48216e-07
8 *1665:A2 *1629:C2 9.22938e-05
9 *1665:A2 *1665:A1 2.39679e-06
10 *1665:A2 *1670:C2 1.68643e-06
11 *540:6 *1621:A 5.71431e-05
12 *540:6 *1669:B1 2.13977e-05
13 *540:6 *1669:B2 6.38328e-07
*RES
1 *1621:ZN *540:6 18.25 
2 *540:6 *1622:B 6.75 
3 *540:6 *1665:A2 20.75 
*END

*D_NET *541 0.000890933
*CONN
*I *1630:A I *D AOI211_X1
*I *1669:B1 I *D OAI22_X1
*I *1622:ZN O *D XNOR2_X1
*CAP
1 *1630:A 0.000162576
2 *1669:B1 0.000125279
3 *1622:ZN 1.23376e-05
4 *541:8 0.000300192
5 *1630:A *1629:A 8.62743e-07
6 *1630:A *1629:C2 3.25683e-05
7 *1630:A *1630:B 1.46266e-05
8 *1630:A *1630:C1 8.96151e-06
9 *1630:A *1630:C2 2.55787e-06
10 *1630:A *1660:A1 0
11 *1630:A *1665:A1 1.04526e-05
12 *1630:A *1671:A4 7.96498e-06
13 *1630:A *549:8 5.75004e-07
14 *1669:B1 *1622:A 0
15 *1669:B1 *1669:A1 8.43215e-07
16 *1669:B1 *1669:B2 1.19839e-05
17 *1669:B1 *1670:C2 0.000165363
18 *541:8 *1630:C2 0
19 *541:8 *1665:A1 1.14339e-05
20 *1622:B *1669:B1 9.57492e-07
21 *540:6 *1669:B1 2.13977e-05
*RES
1 *1622:ZN *541:8 11.6071 
2 *541:8 *1669:B1 27.4286 
3 *541:8 *1630:A 28.9643 
*END

*D_NET *542 0.00115148
*CONN
*I *1629:A I *D OAI211_X1
*I *1670:A I *D OAI211_X1
*I *1664:B1 I *D AOI22_X1
*I *1623:Z O *D XOR2_X1
*CAP
1 *1629:A 0.000181271
2 *1670:A 0
3 *1664:B1 2.59446e-05
4 *1623:Z 7.32965e-05
5 *542:25 0.00027785
6 *542:12 0.00019582
7 *1629:A *1629:B 0
8 *1629:A *1629:C1 4.97191e-06
9 *1629:A *1629:C2 2.1906e-05
10 *1629:A *1630:C1 5.86605e-06
11 *1629:A *1670:C1 2.72021e-05
12 *1629:A *1670:C2 0
13 *1629:A *547:27 1.73997e-05
14 *1664:B1 *1617:B 1.02238e-05
15 *1664:B1 *1664:A1 0.000107413
16 *1664:B1 *1671:A3 0.000108203
17 *542:12 *1617:B 2.45434e-05
18 *542:12 *1664:A1 1.27404e-06
19 *542:12 *751:8 4.64976e-05
20 *542:25 *1622:A 1.78869e-05
21 *542:25 *1670:C1 2.39679e-06
22 *1630:A *1629:A 8.62743e-07
23 *1664:A2 *542:12 0
24 *1665:A2 *1629:A 6.48216e-07
*RES
1 *1623:Z *542:12 24.6071 
2 *542:12 *1664:B1 22.0357 
3 *542:12 *542:25 10.25 
4 *542:25 *1670:A 5 
5 *542:25 *1629:A 34.8929 
*END

*D_NET *543 0.00042866
*CONN
*I *1625:B I *D XOR2_X1
*I *1661:A2 I *D AND2_X1
*I *1624:Z O *D XOR2_X1
*CAP
1 *1625:B 3.39199e-05
2 *1661:A2 2.408e-05
3 *1624:Z 0.000131642
4 *543:8 0.000189642
5 *1625:B *1625:A 7.72537e-06
6 *1625:B *1662:A 2.04312e-06
7 *1625:B *1662:B2 2.23879e-05
8 *1625:B *1772:A 0
9 *1661:A2 *1662:B2 1.72191e-05
10 *1661:A2 *1772:A 0
11 *543:8 *1625:A 0
*RES
1 *1624:Z *543:8 22.75 
2 *543:8 *1661:A2 13.0357 
3 *543:8 *1625:B 14.7143 
*END

*D_NET *544 0.000224115
*CONN
*I *1626:B I *D XOR2_X1
*I *1662:B1 I *D AOI21_X1
*I *1625:Z O *D XOR2_X1
*CAP
1 *1626:B 3.49816e-05
2 *1662:B1 1.68677e-05
3 *1625:Z 3.19228e-05
4 *544:8 8.37721e-05
5 *1626:B *1626:A 1.06418e-05
6 *1626:B *1663:A 0
7 *1626:B *1665:A1 0
8 *1662:B1 *1626:A 1.39232e-06
9 *1662:B1 *1663:A 0
10 *544:8 *1626:A 5.74663e-06
11 *544:8 *1662:A 3.78278e-05
12 *544:8 *1662:B2 9.62051e-07
*RES
1 *1625:Z *544:8 14.25 
2 *544:8 *1662:B1 11.6071 
3 *544:8 *1626:B 14.2143 
*END

*D_NET *545 0.000872758
*CONN
*I *1629:B I *D OAI211_X1
*I *1670:B I *D OAI211_X1
*I *1626:Z O *D XOR2_X1
*CAP
1 *1629:B 0.000123008
2 *1670:B 0
3 *1626:Z 0.000136293
4 *545:8 0.000259301
5 *1629:B *1629:C1 1.21774e-06
6 *1629:B *1630:B 1.31483e-05
7 *1629:B *1630:C2 0.000144256
8 *1629:B *1671:A4 1.19839e-05
9 *545:8 *1630:C2 0.00018355
10 *545:8 *1663:A 0
11 *545:8 *1665:A1 0
12 *1629:A *1629:B 0
*RES
1 *1626:Z *545:8 27.8929 
2 *545:8 *1670:B 10 
3 *545:8 *1629:B 25.8214 
*END

*D_NET *546 0.000328986
*CONN
*I *1628:B I *D XOR2_X1
*I *1667:A2 I *D AND2_X1
*I *1627:Z O *D XOR2_X1
*CAP
1 *1628:B 9.97596e-06
2 *1667:A2 4.56037e-05
3 *1627:Z 5.08549e-05
4 *546:8 0.000106435
5 *1628:B *1627:A 0
6 *1628:B *547:10 1.26998e-05
7 *1667:A2 *1627:A 2.82685e-05
8 *1667:A2 *1667:A1 1.32323e-05
9 *1667:A2 *547:10 4.14348e-05
10 *546:8 *1627:A 2.04813e-05
*RES
1 *1627:Z *546:8 16.3571 
2 *546:8 *1667:A2 17.6071 
3 *546:8 *1628:B 11.25 
*END

*D_NET *547 0.000767902
*CONN
*I *1630:C1 I *D AOI211_X1
*I *1629:C1 I *D OAI211_X1
*I *1668:B1 I *D AOI21_X1
*I *1628:Z O *D XOR2_X1
*CAP
1 *1630:C1 4.34855e-05
2 *1629:C1 6.27918e-06
3 *1668:B1 1.67062e-05
4 *1628:Z 7.23493e-05
5 *547:27 0.00020535
6 *547:10 0.00024464
7 *1630:C1 *1630:B 5.48953e-05
8 *1630:C1 *1630:C2 8.43215e-07
9 *1668:B1 *1627:A 1.34851e-06
10 *1668:B1 *1628:A 0
11 *1668:B1 *1669:B2 1.88334e-06
12 *547:10 *1627:A 1.67832e-06
13 *547:10 *1628:A 0
14 *547:27 *1667:A1 2.18943e-05
15 *547:27 *1668:A 2.39679e-06
16 *547:27 *1668:B2 1.60038e-06
17 *1628:B *547:10 1.26998e-05
18 *1629:A *1629:C1 4.97191e-06
19 *1629:A *1630:C1 5.86605e-06
20 *1629:A *547:27 1.73997e-05
21 *1629:B *1629:C1 1.21774e-06
22 *1630:A *1630:C1 8.96151e-06
23 *1667:A2 *547:10 4.14348e-05
*RES
1 *1628:Z *547:10 18.9643 
2 *547:10 *1668:B1 11.6071 
3 *547:10 *547:27 21.1071 
4 *547:27 *1629:C1 5.75 
5 *547:27 *1630:C1 20.75 
*END

*D_NET *548 0.000172074
*CONN
*I *1630:B I *D AOI211_X1
*I *1629:ZN O *D OAI211_X1
*CAP
1 *1630:B 4.10003e-05
2 *1629:ZN 4.10003e-05
3 *1630:B *1630:C2 7.40328e-06
4 *1629:B *1630:B 1.31483e-05
5 *1630:A *1630:B 1.46266e-05
6 *1630:C1 *1630:B 5.48953e-05
*RES
1 *1629:ZN *1630:B 26.3214 
*END

*D_NET *549 0.000366608
*CONN
*I *1675:A1 I *D NAND4_X1
*I *1660:A1 I *D NAND2_X1
*I *1630:ZN O *D AOI211_X1
*CAP
1 *1675:A1 9.32876e-05
2 *1660:A1 1.12163e-05
3 *1630:ZN 5.3921e-05
4 *549:8 0.000158425
5 *1675:A1 *1660:A2 3.46579e-05
6 *1675:A1 *1671:A2 0
7 *1675:A1 *1675:A2 3.09143e-06
8 *549:8 *1660:A2 1.14339e-05
9 *1630:A *1660:A1 0
10 *1630:A *549:8 5.75004e-07
*RES
1 *1630:ZN *549:8 16.3571 
2 *549:8 *1660:A1 11.25 
3 *549:8 *1675:A1 21.0714 
*END

*D_NET *550 0.000536491
*CONN
*I *1653:A2 I *D NOR2_X1
*I *1632:B I *D XNOR2_X1
*I *1631:ZN O *D XNOR2_X1
*CAP
1 *1653:A2 0
2 *1632:B 0.000119166
3 *1631:ZN 0.000105773
4 *550:10 0.000224939
5 *1632:B *1632:A 4.51285e-05
6 *1632:B *1633:A1 0
7 *1632:B *1652:A 0
8 *1632:B *551:10 2.39679e-06
9 *550:10 *1631:A 3.90891e-05
10 *550:10 *1633:A1 0
*RES
1 *1631:ZN *550:10 21.4643 
2 *550:10 *1632:B 23.4643 
3 *550:10 *1653:A2 10 
*END

*D_NET *551 0.00042978
*CONN
*I *1634:B I *D XNOR2_X1
*I *1633:A2 I *D NAND2_X1
*I *1632:ZN O *D XNOR2_X1
*CAP
1 *1634:B 0
2 *1633:A2 3.85128e-05
3 *1632:ZN 5.36776e-05
4 *551:10 9.21904e-05
5 *1633:A2 *1633:A1 7.23153e-05
6 *1633:A2 *1640:B 1.61965e-05
7 *1633:A2 *1652:A 9.24246e-06
8 *551:10 *1633:A1 0.000142152
9 *551:10 *1640:B 3.09682e-06
10 *1632:B *551:10 2.39679e-06
*RES
1 *1632:ZN *551:10 18.4643 
2 *551:10 *1633:A2 16.25 
3 *551:10 *1634:B 10 
*END

*D_NET *552 0.000217497
*CONN
*I *1658:A1 I *D AND3_X1
*I *1633:ZN O *D NAND2_X1
*CAP
1 *1658:A1 0.00010755
2 *1633:ZN 0.00010755
3 *1658:A1 *1634:A 0
4 *1658:A1 *1651:B1 0
5 *1658:A1 *1658:A2 2.39679e-06
*RES
1 *1633:ZN *1658:A1 20.9286 
*END

*D_NET *553 0.00080179
*CONN
*I *1656:A I *D AOI21_X1
*I *1638:A1 I *D NOR2_X1
*I *1634:ZN O *D XNOR2_X1
*CAP
1 *1656:A 0.000124539
2 *1638:A1 6.21179e-05
3 *1634:ZN 0.000139794
4 *553:10 0.000326451
5 *1638:A1 *1638:A2 7.21602e-06
6 *1656:A *1637:B 0
7 *1656:A *1638:A2 0
8 *1656:A *1656:B1 2.75346e-06
9 *1656:A *1656:B2 9.52105e-05
10 *1656:A *1658:A3 1.65538e-05
11 *553:10 *1632:A 0
12 *553:10 *1634:A 2.71533e-05
13 *553:10 *1658:A2 0
*RES
1 *1634:ZN *553:10 20.1071 
2 *553:10 *1638:A1 11.25 
3 *553:10 *1656:A 30.9286 
*END

*D_NET *554 0.000307373
*CONN
*I *1636:B I *D XOR2_X1
*I *1654:A2 I *D NAND2_X1
*I *1635:Z O *D XOR2_X1
*CAP
1 *1636:B 0
2 *1654:A2 6.0714e-05
3 *1635:Z 7.43691e-05
4 *554:6 0.000135083
5 *1654:A2 *555:14 2.75402e-05
6 *554:6 *1635:A 6.15137e-06
7 *554:6 *1635:B 0
8 *554:6 *1715:B 3.51536e-06
*RES
1 *1635:Z *554:6 12.75 
2 *554:6 *1654:A2 11.6786 
3 *554:6 *1636:B 5 
*END

*D_NET *555 0.000435015
*CONN
*I *1637:B I *D XNOR2_X1
*I *1655:A2 I *D NAND2_X1
*I *1636:Z O *D XOR2_X1
*CAP
1 *1637:B 4.84121e-05
2 *1655:A2 0
3 *1636:Z 0.000127719
4 *555:14 0.000176132
5 *1637:B *1638:A2 1.77822e-05
6 *1637:B *1655:A1 1.21774e-06
7 *555:14 *1636:A 0
8 *555:14 *1637:A 0
9 *555:14 *1655:A1 3.62122e-05
10 *1654:A2 *555:14 2.75402e-05
11 *1656:A *1637:B 0
*RES
1 *1636:Z *555:14 30.2857 
2 *555:14 *1655:A2 5 
3 *555:14 *1637:B 20.5714 
*END

*D_NET *556 0.000163127
*CONN
*I *1638:A2 I *D NOR2_X1
*I *1637:ZN O *D XNOR2_X1
*CAP
1 *1638:A2 6.59019e-05
2 *1637:ZN 6.59019e-05
3 *1638:A2 *557:8 6.32461e-06
4 *1637:B *1638:A2 1.77822e-05
5 *1638:A1 *1638:A2 7.21602e-06
6 *1656:A *1638:A2 0
*RES
1 *1637:ZN *1638:A2 27.4286 
*END

*D_NET *557 0.000782242
*CONN
*I *1651:A I *D OAI21_X1
*I *1675:A2 I *D NAND4_X1
*I *1638:ZN O *D NOR2_X1
*CAP
1 *1651:A 5.28788e-05
2 *1675:A2 0.000232077
3 *1638:ZN 6.64224e-05
4 *557:8 0.000351379
5 *1651:A *1651:B1 2.75346e-06
6 *1651:A *1651:B2 0
7 *1675:A2 *1643:A1 4.48009e-05
8 *1675:A2 *1649:C1 0
9 *1675:A2 *1660:A2 0
10 *1675:A2 *1671:A2 0
11 *1675:A2 *1675:A3 1.39234e-06
12 *1675:A2 *1675:A4 0
13 *557:8 *1643:A1 2.1122e-05
14 *1638:A2 *557:8 6.32461e-06
15 *1675:A1 *1675:A2 3.09143e-06
*RES
1 *1638:ZN *557:8 18.3929 
2 *557:8 *1675:A2 36.7857 
3 *557:8 *1651:A 15.25 
*END

*D_NET *558 0.00016558
*CONN
*I *1641:A1 I *D NOR2_X1
*I *1639:ZN O *D INV_X1
*CAP
1 *1641:A1 7.1991e-05
2 *1639:ZN 7.1991e-05
3 *1641:A1 *1639:A 7.63367e-06
4 *1641:A1 *1640:A 0
5 *1641:A1 *1641:A2 1.32348e-05
6 *1641:A1 *1651:B1 7.29164e-07
*RES
1 *1639:ZN *1641:A1 17.2143 
*END

*D_NET *559 0.000238012
*CONN
*I *1641:A2 I *D NOR2_X1
*I *1642:B I *D XNOR2_X1
*I *1640:ZN O *D XNOR2_X1
*CAP
1 *1641:A2 2.57836e-05
2 *1642:B 2.05667e-05
3 *1640:ZN 3.36977e-05
4 *559:8 8.0048e-05
5 *1641:A2 *577:10 0
6 *1642:B *1639:A 1.45779e-05
7 *559:8 *1640:A 5.01029e-05
8 *1641:A1 *1641:A2 1.32348e-05
*RES
1 *1640:ZN *559:8 14.75 
2 *559:8 *1642:B 12.2857 
3 *559:8 *1641:A2 13.5357 
*END

*D_NET *560 0.000268688
*CONN
*I *1651:B1 I *D OAI21_X1
*I *1641:ZN O *D NOR2_X1
*CAP
1 *1651:B1 0.000132602
2 *1641:ZN 0.000132602
3 *1651:B1 *1651:B2 0
4 *1651:B1 *1658:A2 0
5 *1641:A1 *1651:B1 7.29164e-07
6 *1651:A *1651:B1 2.75346e-06
7 *1658:A1 *1651:B1 0
*RES
1 *1641:ZN *1651:B1 23.25 
*END

*D_NET *561 0.000763253
*CONN
*I *1649:C2 I *D AOI211_X1
*I *1643:A2 I *D NOR2_X1
*I *1674:B1 I *D AOI21_X1
*I *1642:ZN O *D XNOR2_X1
*CAP
1 *1649:C2 0
2 *1643:A2 4.48074e-05
3 *1674:B1 1.33027e-05
4 *1642:ZN 0.000151025
5 *561:14 6.37203e-05
6 *561:10 0.000156635
7 *1643:A2 *1643:A1 8.15234e-06
8 *1643:A2 *1674:A 3.95226e-06
9 *1643:A2 *562:8 3.83757e-05
10 *1643:A2 *567:10 0
11 *1674:B1 *1649:C1 5.54348e-05
12 *1674:B1 *1673:A1 2.06764e-05
13 *561:10 *1640:A 2.05275e-05
14 *561:10 *1642:A 0.000131428
15 *561:10 *1643:A1 3.28688e-05
16 *561:10 *1651:B2 0
17 *561:14 *1649:C1 1.66988e-05
18 *561:14 *1650:A1 1.52083e-06
19 *561:14 *1673:A1 4.12796e-06
*RES
1 *1642:ZN *561:10 24.4286 
2 *561:10 *561:14 5.92857 
3 *561:14 *1674:B1 12.9643 
4 *561:14 *1643:A2 15.75 
5 *561:10 *1649:C2 5 
*END

*D_NET *562 0.000628214
*CONN
*I *1650:A1 I *D NOR2_X1
*I *1673:A1 I *D NOR2_X1
*I *1643:ZN O *D NOR2_X1
*CAP
1 *1650:A1 7.65747e-05
2 *1673:A1 9.12643e-05
3 *1643:ZN 2.08261e-05
4 *562:8 0.000188665
5 *1650:A1 *1643:A1 0
6 *1650:A1 *1649:A 1.60038e-06
7 *1650:A1 *1649:B 1.33704e-05
8 *1650:A1 *1649:C1 4.80515e-06
9 *1650:A1 *1650:A2 1.21774e-06
10 *1673:A1 *1649:B 2.00032e-05
11 *1673:A1 *1649:C1 4.92317e-06
12 *1673:A1 *1673:A2 1.32323e-05
13 *1673:A1 *1674:B2 6.25556e-05
14 *1673:A1 *567:10 2.6099e-05
15 *562:8 *1643:A1 3.83757e-05
16 *1643:A2 *562:8 3.83757e-05
17 *1674:B1 *1673:A1 2.06764e-05
18 *561:14 *1650:A1 1.52083e-06
19 *561:14 *1673:A1 4.12796e-06
*RES
1 *1643:ZN *562:8 13.75 
2 *562:8 *1673:A1 24.3929 
3 *562:8 *1650:A1 18.2857 
*END

*D_NET *563 0.000137678
*CONN
*I *1646:A1 I *D NOR2_X1
*I *1644:ZN O *D INV_X1
*CAP
1 *1646:A1 6.15001e-05
2 *1644:ZN 6.15001e-05
3 *1646:A1 *1646:A2 6.0887e-06
4 *1646:A1 *1672:A1 0
5 *1646:A1 *564:10 8.58953e-06
*RES
1 *1644:ZN *1646:A1 26.2143 
*END

*D_NET *564 0.000343495
*CONN
*I *1646:A2 I *D NOR2_X1
*I *1647:B I *D XNOR2_X1
*I *1645:ZN O *D XNOR2_X1
*CAP
1 *1646:A2 5.34633e-06
2 *1647:B 5.54028e-05
3 *1645:ZN 9.05692e-05
4 *564:10 0.000151318
5 *1647:B *1647:A 8.26038e-06
6 *1647:B *1649:A 2.70833e-06
7 *1647:B *566:10 1.25215e-05
8 *564:10 *1645:A 4.55948e-07
9 *564:10 *1647:A 2.23415e-06
10 *1646:A1 *1646:A2 6.0887e-06
11 *1646:A1 *564:10 8.58953e-06
*RES
1 *1645:ZN *564:10 14.6071 
2 *564:10 *1647:B 11.5714 
3 *564:10 *1646:A2 6.25 
*END

*D_NET *565 0.000365494
*CONN
*I *1649:A I *D AOI211_X1
*I *1646:ZN O *D NOR2_X1
*CAP
1 *1649:A 0.000170996
2 *1646:ZN 0.000170996
3 *1649:A *1643:A1 0
4 *1649:A *1649:B 4.70243e-06
5 *1649:A *1650:A2 1.25748e-05
6 *1649:A *1672:A1 0
7 *1649:A *566:10 1.91498e-06
8 *1647:B *1649:A 2.70833e-06
9 *1650:A1 *1649:A 1.60038e-06
*RES
1 *1646:ZN *1649:A 27.9643 
*END

*D_NET *566 0.000547543
*CONN
*I *1648:A2 I *D AND2_X1
*I *1672:A2 I *D NOR2_X1
*I *1647:ZN O *D XNOR2_X1
*CAP
1 *1648:A2 0
2 *1672:A2 2.37341e-05
3 *1647:ZN 6.83096e-05
4 *566:10 9.20437e-05
5 *1672:A2 *1644:A 0
6 *1672:A2 *1648:A1 9.52084e-05
7 *1672:A2 *1672:A1 8.14262e-05
8 *566:10 *1644:A 0
9 *566:10 *1672:A1 0.000172385
10 *1647:B *566:10 1.25215e-05
11 *1649:A *566:10 1.91498e-06
*RES
1 *1647:ZN *566:10 20.8214 
2 *566:10 *1672:A2 15.6786 
3 *566:10 *1648:A2 10 
*END

*D_NET *567 0.000542312
*CONN
*I *1649:B I *D AOI211_X1
*I *1674:A I *D AOI21_X1
*I *1648:ZN O *D AND2_X1
*CAP
1 *1649:B 6.17729e-05
2 *1674:A 2.20275e-05
3 *1648:ZN 0.000147697
4 *567:10 0.000231497
5 *1649:B *1643:A1 8.43644e-06
6 *1649:B *1649:C1 2.75346e-06
7 *1643:A2 *1674:A 3.95226e-06
8 *1643:A2 *567:10 0
9 *1649:A *1649:B 4.70243e-06
10 *1650:A1 *1649:B 1.33704e-05
11 *1673:A1 *1649:B 2.00032e-05
12 *1673:A1 *567:10 2.6099e-05
*RES
1 *1648:ZN *567:10 25.3929 
2 *567:10 *1674:A 12.25 
3 *567:10 *1649:B 17.25 
*END

*D_NET *568 8.51185e-05
*CONN
*I *1650:A2 I *D NOR2_X1
*I *1649:ZN O *D AOI211_X1
*CAP
1 *1650:A2 3.5663e-05
2 *1649:ZN 3.5663e-05
3 *1650:A2 *1643:A1 0
4 *1650:A2 *1649:C1 0
5 *1649:A *1650:A2 1.25748e-05
6 *1650:A1 *1650:A2 1.21774e-06
*RES
1 *1649:ZN *1650:A2 14.2143 
*END

*D_NET *569 0.000238073
*CONN
*I *1651:B2 I *D OAI21_X1
*I *1650:ZN O *D NOR2_X1
*CAP
1 *1651:B2 0.000119037
2 *1650:ZN 0.000119037
3 *1651:B2 *1642:A 0
4 *1651:B2 *1643:A1 0
5 *1651:A *1651:B2 0
6 *1651:B1 *1651:B2 0
7 *561:10 *1651:B2 0
*RES
1 *1650:ZN *1651:B2 21.7143 
*END

*D_NET *570 0.000199096
*CONN
*I *1658:A2 I *D AND3_X1
*I *1651:ZN O *D OAI21_X1
*CAP
1 *1658:A2 9.17337e-05
2 *1651:ZN 9.17337e-05
3 *1658:A2 *1634:A 0
4 *1658:A2 *1658:A3 1.32323e-05
5 *1658:A2 *577:10 0
6 *1651:B1 *1658:A2 0
7 *1658:A1 *1658:A2 2.39679e-06
8 *553:10 *1658:A2 0
*RES
1 *1651:ZN *1658:A2 29.4286 
*END

*D_NET *571 0.000137937
*CONN
*I *1653:A1 I *D NOR2_X1
*I *1652:ZN O *D INV_X1
*CAP
1 *1653:A1 6.89685e-05
2 *1652:ZN 6.89685e-05
3 *1653:A1 *1631:A 0
*RES
1 *1652:ZN *1653:A1 16.8929 
*END

*D_NET *572 9.56612e-05
*CONN
*I *1657:A1 I *D NOR2_X1
*I *1653:ZN O *D NOR2_X1
*CAP
1 *1657:A1 4.64539e-05
2 *1653:ZN 4.64539e-05
3 *1657:A1 *1631:A 0
4 *1657:A1 *1657:A2 2.75346e-06
*RES
1 *1653:ZN *1657:A1 14.6786 
*END

*D_NET *573 0.000208625
*CONN
*I *1656:B1 I *D AOI21_X1
*I *1654:ZN O *D NAND2_X1
*CAP
1 *1656:B1 0.000102936
2 *1654:ZN 0.000102936
3 *1656:B1 *1656:B2 0
4 *1656:A *1656:B1 2.75346e-06
*RES
1 *1654:ZN *1656:B1 19 
*END

*D_NET *574 0.000234706
*CONN
*I *1656:B2 I *D AOI21_X1
*I *1655:ZN O *D NAND2_X1
*CAP
1 *1656:B2 6.97478e-05
2 *1655:ZN 6.97478e-05
3 *1656:A *1656:B2 9.52105e-05
4 *1656:B1 *1656:B2 0
*RES
1 *1655:ZN *1656:B2 28.75 
*END

*D_NET *575 7.169e-05
*CONN
*I *1657:A2 I *D NOR2_X1
*I *1656:ZN O *D AOI21_X1
*CAP
1 *1657:A2 3.44683e-05
2 *1656:ZN 3.44683e-05
3 *1657:A2 *1631:A 0
4 *1657:A1 *1657:A2 2.75346e-06
*RES
1 *1656:ZN *1657:A2 13.25 
*END

*D_NET *576 0.000401963
*CONN
*I *1658:A3 I *D AND3_X1
*I *1657:ZN O *D NOR2_X1
*CAP
1 *1658:A3 0.00017973
2 *1657:ZN 0.00017973
3 *1658:A3 *1634:A 1.28122e-06
4 *1658:A3 *577:10 1.14365e-05
5 *1656:A *1658:A3 1.65538e-05
6 *1658:A2 *1658:A3 1.32323e-05
*RES
1 *1657:ZN *1658:A3 40.5 
*END

*D_NET *577 0.000582904
*CONN
*I *1659:A I *D INV_X1
*I *1658:ZN O *D AND3_X1
*CAP
1 *1659:A 0
2 *1658:ZN 0.000280509
3 *577:10 0.000280509
4 *577:10 *1639:A 0
5 *577:10 *1642:A 1.045e-05
6 *577:10 *1660:A2 0
7 *1641:A2 *577:10 0
8 *1658:A2 *577:10 0
9 *1658:A3 *577:10 1.14365e-05
*RES
1 *1658:ZN *577:10 45.1072 
2 *577:10 *1659:A 5 
*END

*D_NET *578 0.000226176
*CONN
*I *1660:A2 I *D NAND2_X1
*I *1659:ZN O *D INV_X1
*CAP
1 *1660:A2 9.00422e-05
2 *1659:ZN 9.00422e-05
3 *1675:A1 *1660:A2 3.46579e-05
4 *1675:A2 *1660:A2 0
5 *549:8 *1660:A2 1.14339e-05
6 *577:10 *1660:A2 0
*RES
1 *1659:ZN *1660:A2 30.2857 
*END

*D_NET *579 0.000510308
*CONN
*I *1671:A2 I *D NAND4_X1
*I *1660:ZN O *D NAND2_X1
*CAP
1 *1671:A2 0.000211558
2 *1660:ZN 0.000211558
3 *1671:A2 *1619:A1 0
4 *1671:A2 *1664:A1 6.89712e-05
5 *1671:A2 *1674:B2 0
6 *1671:A2 *1675:A4 5.75996e-06
7 *1671:A2 *1831:A1 1.24611e-05
8 *1671:A2 *751:8 0
9 *1675:A1 *1671:A2 0
10 *1675:A2 *1671:A2 0
*RES
1 *1660:ZN *1671:A2 43.5 
*END

*D_NET *580 0.000263269
*CONN
*I *1662:A I *D AOI21_X1
*I *1661:ZN O *D AND2_X1
*CAP
1 *1662:A 5.44678e-05
2 *1661:ZN 5.44678e-05
3 *1662:A *1626:A 9.44188e-05
4 *1662:A *1662:B2 2.00438e-05
5 *1625:B *1662:A 2.04312e-06
6 *544:8 *1662:A 3.78278e-05
*RES
1 *1661:ZN *1662:A 28.75 
*END

*D_NET *581 0.000208802
*CONN
*I *1663:A I *D INV_X1
*I *1662:ZN O *D AOI21_X1
*CAP
1 *1663:A 0.000104401
2 *1662:ZN 0.000104401
3 *1626:B *1663:A 0
4 *1662:B1 *1663:A 0
5 *545:8 *1663:A 0
*RES
1 *1662:ZN *1663:A 30.9643 
*END

*D_NET *582 0.00021591
*CONN
*I *1664:B2 I *D AOI22_X1
*I *1663:ZN O *D INV_X1
*CAP
1 *1664:B2 0.000107955
2 *1663:ZN 0.000107955
3 *1664:B2 *1617:B 0
4 *1664:B2 *1622:A 0
5 *1664:B2 *1855:B 0
*RES
1 *1663:ZN *1664:B2 31.4643 
*END

*D_NET *583 0.000414389
*CONN
*I *1671:A3 I *D NAND4_X1
*I *1664:ZN O *D AOI22_X1
*CAP
1 *1671:A3 0.000115435
2 *1664:ZN 0.000115435
3 *1671:A3 *1664:A1 6.63733e-05
4 *1671:A3 *1671:A4 7.72537e-06
5 *1664:B1 *1671:A3 0.000108203
6 *1671:A1 *1671:A3 1.21774e-06
*RES
1 *1664:ZN *1671:A3 35.9286 
*END

*D_NET *584 0.000126872
*CONN
*I *1670:C1 I *D OAI211_X1
*I *1665:ZN O *D AND2_X1
*CAP
1 *1670:C1 4.10629e-05
2 *1665:ZN 4.10629e-05
3 *1670:C1 *1670:C2 1.51469e-05
4 *1629:A *1670:C1 2.72021e-05
5 *542:25 *1670:C1 2.39679e-06
*RES
1 *1665:ZN *1670:C1 15.3571 
*END

*D_NET *585 9.72815e-05
*CONN
*I *1669:A1 I *D OAI22_X1
*I *1666:ZN O *D INV_X1
*CAP
1 *1669:A1 4.82191e-05
2 *1666:ZN 4.82191e-05
3 *1669:B1 *1669:A1 8.43215e-07
*RES
1 *1666:ZN *1669:A1 14.8929 
*END

*D_NET *586 0.000107778
*CONN
*I *1668:A I *D AOI21_X1
*I *1667:ZN O *D AND2_X1
*CAP
1 *1668:A 5.23324e-05
2 *1667:ZN 5.23324e-05
3 *1668:A *1628:A 0
4 *1668:A *1668:B2 7.16188e-07
5 *547:27 *1668:A 2.39679e-06
*RES
1 *1667:ZN *1668:A 15.5714 
*END

*D_NET *587 0.000443257
*CONN
*I *1669:B2 I *D OAI22_X1
*I *1668:ZN O *D AOI21_X1
*CAP
1 *1669:B2 6.78412e-05
2 *1668:ZN 6.78412e-05
3 *1669:B2 *1620:B 1.20697e-05
4 *1669:B2 *1621:A 0
5 *1669:B2 *1627:A 4.85844e-06
6 *1669:B2 *1666:A 9.36271e-05
7 *1669:B2 *1668:B2 0.000182514
8 *1668:B1 *1669:B2 1.88334e-06
9 *1669:B1 *1669:B2 1.19839e-05
10 *540:6 *1669:B2 6.38328e-07
*RES
1 *1668:ZN *1669:B2 32.3571 
*END

*D_NET *588 0.000533445
*CONN
*I *1670:C2 I *D OAI211_X1
*I *1669:ZN O *D OAI22_X1
*CAP
1 *1670:C2 0.000163015
2 *1669:ZN 0.000163015
3 *1670:C2 *1622:A 1.80284e-05
4 *1670:C2 *1665:A1 7.19036e-06
5 *1629:A *1670:C2 0
6 *1665:A2 *1670:C2 1.68643e-06
7 *1669:B1 *1670:C2 0.000165363
8 *1670:C1 *1670:C2 1.51469e-05
*RES
1 *1669:ZN *1670:C2 30.9286 
*END

*D_NET *589 0.000514865
*CONN
*I *1671:A4 I *D NAND4_X1
*I *1670:ZN O *D OAI211_X1
*CAP
1 *1671:A4 0.000165366
2 *1670:ZN 0.000165366
3 *1671:A4 *1617:B 0
4 *1671:A4 *1630:C2 0.000156459
5 *1671:A4 *1674:B2 0
6 *1629:B *1671:A4 1.19839e-05
7 *1630:A *1671:A4 7.96498e-06
8 *1671:A3 *1671:A4 7.72537e-06
*RES
1 *1670:ZN *1671:A4 39.6429 
*END

*D_NET *590 0.000154295
*CONN
*I *1832:A1 I *D NOR2_X1
*I *1671:ZN O *D NAND4_X1
*CAP
1 *1832:A1 7.47553e-05
2 *1671:ZN 7.47553e-05
3 *1832:A1 *1831:A1 0
4 *1832:A1 *1832:A2 8.43215e-07
5 *1671:A1 *1832:A1 3.94106e-06
*RES
1 *1671:ZN *1832:A1 18.0714 
*END

*D_NET *591 0.000357512
*CONN
*I *1673:A2 I *D NOR2_X1
*I *1672:ZN O *D NOR2_X1
*CAP
1 *1673:A2 0.000154179
2 *1672:ZN 0.000154179
3 *1673:A2 *1831:A1 3.59206e-05
4 *1673:A1 *1673:A2 1.32323e-05
*RES
1 *1672:ZN *1673:A2 27.2857 
*END

*D_NET *592 0.000163353
*CONN
*I *1675:A3 I *D NAND4_X1
*I *1673:ZN O *D NOR2_X1
*CAP
1 *1675:A3 4.06605e-05
2 *1673:ZN 4.06605e-05
3 *1675:A3 *1675:A4 6.57493e-05
4 *1675:A3 *1831:A1 1.48902e-05
5 *1675:A2 *1675:A3 1.39234e-06
*RES
1 *1673:ZN *1675:A3 25.2857 
*END

*D_NET *593 0.000376184
*CONN
*I *1675:A4 I *D NAND4_X1
*I *1674:ZN O *D AOI21_X1
*CAP
1 *1675:A4 0.000103113
2 *1674:ZN 0.000103113
3 *1675:A4 *1649:C1 9.80283e-05
4 *1675:A4 *1831:A1 4.20538e-07
5 *1671:A2 *1675:A4 5.75996e-06
6 *1675:A2 *1675:A4 0
7 *1675:A3 *1675:A4 6.57493e-05
*RES
1 *1674:ZN *1675:A4 35.8929 
*END

*D_NET *594 0.000459708
*CONN
*I *1831:A1 I *D NOR2_X1
*I *1675:ZN O *D NAND4_X1
*CAP
1 *1831:A1 0.00018601
2 *1675:ZN 0.00018601
3 *1831:A1 *1672:A1 0
4 *1831:A1 *1831:A2 1.21774e-06
5 *1831:A1 *1832:A2 2.27771e-05
6 *1671:A2 *1831:A1 1.24611e-05
7 *1673:A2 *1831:A1 3.59206e-05
8 *1675:A3 *1831:A1 1.48902e-05
9 *1675:A4 *1831:A1 4.20538e-07
10 *1832:A1 *1831:A1 0
*RES
1 *1675:ZN *1831:A1 31.6072 
*END

*D_NET *595 0.000351703
*CONN
*I *1726:C2 I *D OAI211_X1
*I *1677:B I *D XNOR2_X1
*I *1676:ZN O *D XNOR2_X1
*CAP
1 *1726:C2 4.81111e-05
2 *1677:B 0
3 *1676:ZN 0.000119036
4 *595:10 0.000167147
5 *1726:C2 *1726:C1 2.43548e-06
6 *1726:C2 *1830:A1 8.26038e-06
7 *595:10 *1676:A 0
8 *595:10 *1726:C1 6.71316e-06
9 *595:10 *1830:A1 0
10 *595:10 *1831:A2 0
*RES
1 *1676:ZN *595:10 17.1429 
2 *595:10 *1677:B 5 
3 *595:10 *1726:C2 10.5714 
*END

*D_NET *596 0.000588464
*CONN
*I *1724:B1 I *D AOI21_X1
*I *1678:B I *D XOR2_X1
*I *1677:ZN O *D XNOR2_X1
*CAP
1 *1724:B1 5.4191e-06
2 *1678:B 3.41881e-05
3 *1677:ZN 8.57637e-05
4 *596:12 0.000125371
5 *1678:B *1678:A 4.04707e-06
6 *1678:B *1724:A 9.30692e-06
7 *1678:B *1724:B2 1.04632e-05
8 *1724:B1 *1724:A 1.40196e-06
9 *1724:B1 *1724:B2 8.43215e-07
10 *1724:B1 *1726:B 2.39679e-06
11 *596:12 *1677:A 9.62051e-07
12 *596:12 *1678:A 9.00517e-05
13 *596:12 *1679:B 1.90956e-05
14 *596:12 *1724:B2 1.56073e-06
15 *596:12 *1726:B 0.000185923
16 *596:12 *1726:C1 1.16704e-05
*RES
1 *1677:ZN *596:12 30.9286 
2 *596:12 *1678:B 9.25 
3 *596:12 *1724:B1 5.75 
*END

*D_NET *597 0.000628497
*CONN
*I *1697:B2 I *D AOI22_X1
*I *1681:A I *D OAI21_X1
*I *1678:Z O *D XOR2_X1
*CAP
1 *1697:B2 0
2 *1681:A 5.01819e-05
3 *1678:Z 0.000220721
4 *597:12 0.000270903
5 *1681:A *1681:B1 3.37909e-05
6 *1681:A *1682:A 5.7078e-06
7 *1681:A *1697:A2 1.30853e-05
8 *1681:A *1697:B1 2.39679e-06
9 *597:12 *1677:A 0
10 *597:12 *1682:B2 0
11 *597:12 *1697:B1 1.74934e-05
12 *597:12 *1724:B2 1.42174e-05
13 *597:12 *1726:A 0
14 *597:12 *599:27 0
*RES
1 *1678:Z *597:12 38.9286 
2 *597:12 *1681:A 11.9286 
3 *597:12 *1697:B2 5 
*END

*D_NET *598 0.000508279
*CONN
*I *1696:B1 I *D OAI21_X1
*I *1680:B I *D XNOR2_X1
*I *1679:ZN O *D XNOR2_X1
*CAP
1 *1696:B1 2.71968e-05
2 *1680:B 2.4847e-05
3 *1679:ZN 0.00016132
4 *598:20 0.000213364
5 *1680:B *1681:B2 4.10984e-06
6 *1680:B *1696:B2 4.83908e-06
7 *1696:B1 *1681:B2 1.13153e-05
8 *1696:B1 *1696:A 1.32348e-05
9 *1696:B1 *1696:B2 1.07434e-05
10 *1696:B1 *599:8 5.39412e-06
11 *598:20 *1679:A 2.93382e-05
12 *598:20 *1679:B 2.16072e-07
13 *598:20 *1696:B2 1.39839e-06
14 *598:20 *1697:B1 9.62051e-07
15 *598:20 *1779:A 0
*RES
1 *1679:ZN *598:20 28.2857 
2 *598:20 *1680:B 12.2857 
3 *598:20 *1696:B1 14.8929 
*END

*D_NET *599 0.000749272
*CONN
*I *1682:B1 I *D AOI21_X1
*I *1681:B1 I *D OAI21_X1
*I *1694:A2 I *D NAND2_X1
*I *1680:ZN O *D XNOR2_X1
*CAP
1 *1682:B1 0
2 *1681:B1 6.71699e-05
3 *1694:A2 1.31675e-05
4 *1680:ZN 3.90144e-05
5 *599:27 0.000116955
6 *599:8 0.000101967
7 *1681:B1 *1681:B2 2.79748e-06
8 *1681:B1 *1682:A 4.04517e-05
9 *1681:B1 *1694:A1 8.22447e-06
10 *1681:B1 *1699:C2 0
11 *1694:A2 *1682:B2 0
12 *1694:A2 *1696:A 7.16188e-07
13 *1694:A2 *1696:B2 0
14 *599:8 *1681:B2 0
15 *599:8 *1682:B2 1.35139e-05
16 *599:8 *1696:B2 5.51756e-05
17 *599:8 *1697:B1 6.86795e-05
18 *599:27 *1681:B2 0
19 *599:27 *1682:B2 7.72792e-06
20 *599:27 *1694:A1 4.11214e-05
21 *599:27 *1697:B1 0.000133405
22 *599:27 *601:12 0
23 *1681:A *1681:B1 3.37909e-05
24 *1696:B1 *599:8 5.39412e-06
25 *597:12 *599:27 0
*RES
1 *1680:ZN *599:8 17.0357 
2 *599:8 *1694:A2 11.25 
3 *599:8 *599:27 14.4643 
4 *599:27 *1681:B1 23.9643 
5 *599:27 *1682:B1 5 
*END

*D_NET *600 0.000170327
*CONN
*I *1682:A I *D AOI21_X1
*I *1681:ZN O *D OAI21_X1
*CAP
1 *1682:A 5.14703e-05
2 *1681:ZN 5.14703e-05
3 *1682:A *1681:B2 2.12265e-05
4 *1681:A *1682:A 5.7078e-06
5 *1681:B1 *1682:A 4.04517e-05
*RES
1 *1681:ZN *1682:A 17.1071 
*END

*D_NET *601 0.000753585
*CONN
*I *1699:A I *D OAI211_X1
*I *1697:A1 I *D AOI22_X1
*I *1682:ZN O *D AOI21_X1
*CAP
1 *1699:A 0.000207341
2 *1697:A1 0
3 *1682:ZN 3.27784e-05
4 *601:12 0.000240119
5 *1699:A *1694:A1 0.000116162
6 *1699:A *1699:B 1.32323e-05
7 *1699:A *1699:C2 4.48283e-06
8 *1699:A *609:15 2.39679e-06
9 *1699:A *618:12 1.43996e-05
10 *1699:A *641:12 1.39839e-06
11 *601:12 *1694:A1 5.58225e-05
12 *601:12 *1697:B1 6.54524e-05
13 *599:27 *601:12 0
*RES
1 *1682:ZN *601:12 16 
2 *601:12 *1697:A1 10 
3 *601:12 *1699:A 35.25 
*END

*D_NET *602 0.000375348
*CONN
*I *1693:C1 I *D OAI221_X1
*I *1684:B I *D XNOR2_X1
*I *1683:ZN O *D XNOR2_X1
*CAP
1 *1693:C1 8.62105e-05
2 *1684:B 1.50803e-05
3 *1683:ZN 7.55647e-05
4 *602:6 0.000176855
5 *1693:C1 *1684:A 0
6 *1693:C1 *1692:A 4.45242e-06
7 *1693:C1 *1693:C2 1.21774e-06
8 *602:6 *1684:A 1.59673e-05
*RES
1 *1683:ZN *602:6 13.25 
2 *602:6 *1684:B 6.60714 
3 *602:6 *1693:C1 13.7143 
*END

*D_NET *603 0.000670254
*CONN
*I *1686:B I *D XNOR2_X1
*I *1685:A2 I *D NAND2_X1
*I *1684:ZN O *D XNOR2_X1
*CAP
1 *1686:B 6.3961e-06
2 *1685:A2 4.27485e-05
3 *1684:ZN 9.90065e-05
4 *603:12 0.000148151
5 *1685:A2 *1680:A 3.65322e-06
6 *1685:A2 *1685:A1 1.21774e-06
7 *1685:A2 *1693:A 8.01388e-05
8 *1685:A2 *1757:A1 0
9 *1686:B *1680:A 0
10 *603:12 *1685:A1 0
11 *603:12 *1686:A 3.2693e-05
12 *603:12 *1692:A 0.000224367
13 *603:12 *1782:A 3.18816e-05
*RES
1 *1684:ZN *603:12 31.0357 
2 *603:12 *1685:A2 20.75 
3 *603:12 *1686:B 5.75 
*END

*D_NET *604 0.000454971
*CONN
*I *1693:A I *D OAI221_X1
*I *1685:ZN O *D NAND2_X1
*CAP
1 *1693:A 0.000101987
2 *1685:ZN 0.000101987
3 *1693:A *1685:A1 2.1091e-05
4 *1693:A *1691:B2 8.19658e-05
5 *1693:A *1692:A 4.24673e-07
6 *1693:A *1693:B2 4.12796e-06
7 *1693:A *1698:A 1.72426e-05
8 *1693:A *605:12 4.60072e-05
9 *1685:A2 *1693:A 8.01388e-05
*RES
1 *1685:ZN *1693:A 36.5357 
*END

*D_NET *605 0.0010294
*CONN
*I *1698:A I *D AOI21_X1
*I *1693:B1 I *D OAI221_X1
*I *1686:ZN O *D XNOR2_X1
*CAP
1 *1698:A 0.000114989
2 *1693:B1 0
3 *1686:ZN 4.68169e-05
4 *605:12 0.000161806
5 *1698:A *1691:B2 0.000100276
6 *1698:A *1693:B2 0.000281135
7 *1698:A *1693:C2 2.52965e-06
8 *1698:A *1699:C2 2.16072e-07
9 *1698:A *609:15 0
10 *605:12 *1685:A1 0.000185923
11 *605:12 *1691:B2 6.92191e-05
12 *605:12 *1693:B2 2.39679e-06
13 *605:12 *1693:C2 8.43215e-07
14 *1693:A *1698:A 1.72426e-05
15 *1693:A *605:12 4.60072e-05
*RES
1 *1686:ZN *605:12 26 
2 *605:12 *1693:B1 5 
3 *605:12 *1698:A 35.5 
*END

*D_NET *606 0.00030319
*CONN
*I *1689:A1 I *D NOR2_X1
*I *1687:ZN O *D INV_X1
*CAP
1 *1689:A1 4.41828e-05
2 *1687:ZN 4.41828e-05
3 *1689:A1 *1687:A 0.000146397
4 *1689:A1 *1689:A2 6.84274e-05
*RES
1 *1687:ZN *1689:A1 28.3929 
*END

*D_NET *607 0.000474423
*CONN
*I *1690:B I *D XNOR2_X1
*I *1689:A2 I *D NOR2_X1
*I *1688:ZN O *D XNOR2_X1
*CAP
1 *1690:B 1.61221e-05
2 *1689:A2 4.21002e-05
3 *1688:ZN 8.38137e-05
4 *607:6 0.000142036
5 *1689:A2 *1683:B 0
6 *1689:A2 *1687:A 9.55318e-06
7 *607:6 *1690:A 0.000112371
8 *1689:A1 *1689:A2 6.84274e-05
*RES
1 *1688:ZN *607:6 15.75 
2 *607:6 *1689:A2 20.75 
3 *607:6 *1690:B 6.75 
*END

*D_NET *608 0.000265425
*CONN
*I *1691:A I *D AOI21_X1
*I *1689:ZN O *D NOR2_X1
*CAP
1 *1691:A 0.000107042
2 *1689:ZN 0.000107042
3 *1691:A *1691:B2 2.38892e-05
4 *1691:A *1693:B2 1.04526e-05
5 *1691:A *609:8 1.69994e-05
*RES
1 *1689:ZN *1691:A 31.7143 
*END

*D_NET *609 0.000432156
*CONN
*I *1699:C1 I *D OAI211_X1
*I *1698:B1 I *D AOI21_X1
*I *1691:B1 I *D AOI21_X1
*I *1690:ZN O *D XNOR2_X1
*CAP
1 *1699:C1 0
2 *1698:B1 3.38024e-05
3 *1691:B1 0
4 *1690:ZN 9.79287e-05
5 *609:15 9.06882e-05
6 *609:8 0.000154815
7 *1698:B1 *1693:B2 0
8 *1698:B1 *1699:B 2.99188e-05
9 *609:8 *1691:B2 2.52965e-06
10 *609:15 *1699:C2 8.43215e-07
11 *609:15 *618:12 2.23415e-06
12 *1691:A *609:8 1.69994e-05
13 *1698:A *609:15 0
14 *1699:A *609:15 2.39679e-06
*RES
1 *1690:ZN *609:8 15.5357 
2 *609:8 *1691:B1 5 
3 *609:8 *609:15 5.75 
4 *609:15 *1698:B1 19.3214 
5 *609:15 *1699:C1 5 
*END

*D_NET *610 0.000556838
*CONN
*I *1693:B2 I *D OAI221_X1
*I *1691:ZN O *D AOI21_X1
*CAP
1 *1693:B2 0.000126708
2 *1691:ZN 0.000126708
3 *1693:B2 *1691:B2 4.62745e-06
4 *1693:B2 *1693:C2 6.82202e-07
5 *1693:B2 *1698:B2 0
6 *1691:A *1693:B2 1.04526e-05
7 *1693:A *1693:B2 4.12796e-06
8 *1698:A *1693:B2 0.000281135
9 *1698:B1 *1693:B2 0
10 *605:12 *1693:B2 2.39679e-06
*RES
1 *1691:ZN *1693:B2 39.1429 
*END

*D_NET *611 0.000114112
*CONN
*I *1693:C2 I *D OAI221_X1
*I *1692:ZN O *D INV_X1
*CAP
1 *1693:C2 5.44196e-05
2 *1692:ZN 5.44196e-05
3 *1693:C2 *1697:A2 0
4 *1693:B2 *1693:C2 6.82202e-07
5 *1693:C1 *1693:C2 1.21774e-06
6 *1698:A *1693:C2 2.52965e-06
7 *605:12 *1693:C2 8.43215e-07
*RES
1 *1692:ZN *1693:C2 15.5714 
*END

*D_NET *612 0.000339042
*CONN
*I *1697:A2 I *D AOI22_X1
*I *1693:ZN O *D OAI221_X1
*CAP
1 *1697:A2 0.00016287
2 *1693:ZN 0.00016287
3 *1697:A2 *1697:B1 2.16072e-07
4 *1681:A *1697:A2 1.30853e-05
5 *1693:C2 *1697:A2 0
*RES
1 *1693:ZN *1697:A2 26.2857 
*END

*D_NET *613 8.66968e-05
*CONN
*I *1696:A I *D OAI21_X1
*I *1694:ZN O *D NAND2_X1
*CAP
1 *1696:A 3.63729e-05
2 *1694:ZN 3.63729e-05
3 *1694:A2 *1696:A 7.16188e-07
4 *1696:B1 *1696:A 1.32348e-05
*RES
1 *1694:ZN *1696:A 14.2143 
*END

*D_NET *614 0.000223552
*CONN
*I *1696:B2 I *D OAI21_X1
*I *1695:ZN O *D INV_X1
*CAP
1 *1696:B2 7.46137e-05
2 *1695:ZN 7.46137e-05
3 *1696:B2 *1681:B2 0
4 *1696:B2 *1682:B2 2.16772e-06
5 *1696:B2 *1780:A 0
6 *1680:B *1696:B2 4.83908e-06
7 *1694:A2 *1696:B2 0
8 *1696:B1 *1696:B2 1.07434e-05
9 *598:20 *1696:B2 1.39839e-06
10 *599:8 *1696:B2 5.51756e-05
*RES
1 *1695:ZN *1696:B2 28.4643 
*END

*D_NET *615 0.000538401
*CONN
*I *1697:B1 I *D AOI22_X1
*I *1696:ZN O *D OAI21_X1
*CAP
1 *1697:B1 0.00010367
2 *1696:ZN 0.00010367
3 *1697:B1 *1682:B2 4.11427e-05
4 *1697:B1 *1694:A1 1.3143e-06
5 *1681:A *1697:B1 2.39679e-06
6 *1697:A2 *1697:B1 2.16072e-07
7 *597:12 *1697:B1 1.74934e-05
8 *598:20 *1697:B1 9.62051e-07
9 *599:8 *1697:B1 6.86795e-05
10 *599:27 *1697:B1 0.000133405
11 *601:12 *1697:B1 6.54524e-05
*RES
1 *1696:ZN *1697:B1 37 
*END

*D_NET *616 0.000325818
*CONN
*I *1726:A I *D OAI211_X1
*I *1697:ZN O *D AOI22_X1
*CAP
1 *1726:A 0.000161532
2 *1697:ZN 0.000161532
3 *1726:A *1677:A 0
4 *1726:A *1679:B 0
5 *1726:A *1726:C1 2.75346e-06
6 *597:12 *1726:A 0
*RES
1 *1697:ZN *1726:A 25.5357 
*END

*D_NET *617 0.000165702
*CONN
*I *1699:B I *D OAI211_X1
*I *1698:ZN O *D AOI21_X1
*CAP
1 *1699:B 5.22417e-05
2 *1698:ZN 5.22417e-05
3 *1699:B *1699:C2 1.25407e-05
4 *1699:B *618:12 5.52692e-06
5 *1698:B1 *1699:B 2.99188e-05
6 *1699:A *1699:B 1.32323e-05
*RES
1 *1698:ZN *1699:B 26.9286 
*END

*D_NET *618 0.000427909
*CONN
*I *1829:A1 I *D NOR3_X1
*I *1723:A I *D AOI21_X1
*I *1699:ZN O *D OAI211_X1
*CAP
1 *1829:A1 4.4757e-05
2 *1723:A 0
3 *1699:ZN 0.000149007
4 *618:12 0.000193764
5 *1829:A1 *1724:A 1.22944e-05
6 *1829:A1 *1829:A3 3.09411e-06
7 *1829:A1 *641:12 2.11458e-06
8 *1829:A1 *742:12 0
9 *618:12 *641:12 7.16188e-07
10 *618:12 *742:12 0
11 *1699:A *618:12 1.43996e-05
12 *1699:B *618:12 5.52692e-06
13 *609:15 *618:12 2.23415e-06
*RES
1 *1699:ZN *618:12 20.3929 
2 *618:12 *1723:A 5 
3 *618:12 *1829:A1 9.75 
*END

*D_NET *619 0.000397336
*CONN
*I *1702:B I *D XOR2_X1
*I *1701:A2 I *D NAND2_X1
*I *1700:Z O *D XOR2_X1
*CAP
1 *1702:B 4.96367e-06
2 *1701:A2 4.74067e-05
3 *1700:Z 9.08827e-05
4 *619:10 0.000143253
5 *1701:A2 *1700:A 0
6 *1701:A2 *1701:A1 9.52084e-05
7 *1701:A2 *1702:A 9.55318e-06
8 *1701:A2 *742:12 0
9 *619:10 *1700:A 6.06867e-06
*RES
1 *1700:Z *619:10 14.4286 
2 *619:10 *1701:A2 22.1071 
3 *619:10 *1702:B 5.75 
*END

*D_NET *620 0.000322994
*CONN
*I *1723:B1 I *D AOI21_X1
*I *1701:ZN O *D NAND2_X1
*CAP
1 *1723:B1 0.000120978
2 *1701:ZN 0.000120978
3 *1723:B1 *1702:A 0
4 *1723:B1 *641:12 8.1038e-05
5 *1723:B1 *742:12 0
*RES
1 *1701:ZN *1723:B1 35.3571 
*END

*D_NET *621 0.000422102
*CONN
*I *1703:B I *D XNOR2_X1
*I *1722:C2 I *D AOI221_X1
*I *1702:Z O *D XOR2_X1
*CAP
1 *1703:B 6.6532e-06
2 *1722:C2 3.61125e-05
3 *1702:Z 9.21546e-05
4 *621:8 0.00013492
5 *1703:B *1701:A1 5.11191e-06
6 *1722:C2 *1722:A 5.01029e-05
7 *621:8 *1701:A1 9.70469e-05
*RES
1 *1702:Z *621:8 23.1429 
2 *621:8 *1722:C2 14.75 
3 *621:8 *1703:B 10.9286 
*END

*D_NET *622 0.000166002
*CONN
*I *1709:A1 I *D NOR2_X1
*I *1721:A1 I *D NOR2_X1
*I *1703:ZN O *D XNOR2_X1
*CAP
1 *1709:A1 3.40548e-05
2 *1721:A1 1.68513e-05
3 *1703:ZN 2.33034e-05
4 *622:6 7.42096e-05
5 *1709:A1 *1709:A2 8.43215e-07
6 *1721:A1 *1703:A 5.52959e-06
7 *1721:A1 *1709:A2 8.43215e-07
8 *622:6 *1703:A 1.03664e-05
*RES
1 *1703:ZN *622:6 7.75 
2 *622:6 *1721:A1 7.17857 
3 *622:6 *1709:A1 9.21429 
*END

*D_NET *623 0.000194816
*CONN
*I *1706:A1 I *D NOR2_X1
*I *1704:ZN O *D INV_X1
*CAP
1 *1706:A1 8.28956e-05
2 *1704:ZN 8.28956e-05
3 *1706:A1 *1728:B 1.55645e-05
4 *1706:A1 *624:6 1.34605e-05
*RES
1 *1704:ZN *1706:A1 28.9286 
*END

*D_NET *624 0.00039923
*CONN
*I *1706:A2 I *D NOR2_X1
*I *1707:B I *D XNOR2_X1
*I *1705:ZN O *D XNOR2_X1
*CAP
1 *1706:A2 0
2 *1707:B 4.21172e-05
3 *1705:ZN 0.000128265
4 *624:6 0.000170382
5 *1707:B *1707:A 1.15283e-05
6 *1707:B *1708:A 0
7 *1707:B *1708:B1 7.91664e-06
8 *1707:B *1720:A 3.58094e-06
9 *1707:B *1720:B 4.68749e-06
10 *624:6 *1705:B 1.58933e-05
11 *624:6 *1707:A 0
12 *624:6 *1720:A 0
13 *624:6 *1728:B 1.39839e-06
14 *1706:A1 *624:6 1.34605e-05
*RES
1 *1705:ZN *624:6 18.75 
2 *624:6 *1707:B 10.5714 
3 *624:6 *1706:A2 5 
*END

*D_NET *625 0.000115093
*CONN
*I *1708:A I *D AOI21_X1
*I *1706:ZN O *D NOR2_X1
*CAP
1 *1708:A 3.7736e-05
2 *1706:ZN 3.7736e-05
3 *1708:A *1708:B1 3.96215e-05
4 *1708:A *1720:A 0
5 *1708:A *626:6 0
6 *1707:B *1708:A 0
*RES
1 *1706:ZN *1708:A 14.75 
*END

*D_NET *626 0.000260325
*CONN
*I *1708:B1 I *D AOI21_X1
*I *1720:B I *D XNOR2_X1
*I *1707:ZN O *D XNOR2_X1
*CAP
1 *1708:B1 4.04089e-05
2 *1720:B 4.29252e-05
3 *1707:ZN 5.5454e-06
4 *626:6 8.88795e-05
5 *1708:B1 *1709:A2 0
6 *1708:B1 *1720:A 0
7 *1720:B *1707:A 1.7326e-06
8 *1720:B *1720:A 2.86077e-05
9 *1720:B *1721:A2 0
10 *626:6 *1720:A 0
11 *1707:B *1708:B1 7.91664e-06
12 *1707:B *1720:B 4.68749e-06
13 *1708:A *1708:B1 3.96215e-05
14 *1708:A *626:6 0
*RES
1 *1707:ZN *626:6 5.75 
2 *626:6 *1720:B 10.7143 
3 *626:6 *1708:B1 11.7143 
*END

*D_NET *627 0.00021393
*CONN
*I *1709:A2 I *D NOR2_X1
*I *1708:ZN O *D AOI21_X1
*CAP
1 *1709:A2 0.000102444
2 *1708:ZN 0.000102444
3 *1709:A2 *1700:B 0
4 *1709:A2 *1703:A 7.35445e-06
5 *1709:A2 *1721:A2 0
6 *1708:B1 *1709:A2 0
7 *1709:A1 *1709:A2 8.43215e-07
8 *1721:A1 *1709:A2 8.43215e-07
*RES
1 *1708:ZN *1709:A2 20.3571 
*END

*D_NET *628 0.00036289
*CONN
*I *1722:A I *D AOI221_X1
*I *1709:ZN O *D NOR2_X1
*CAP
1 *1722:A 0.00011913
2 *1709:ZN 0.00011913
3 *1722:A *1700:B 0
4 *1722:A *1701:A1 0
5 *1722:A *1703:A 1.74882e-05
6 *1722:A *1721:A2 2.39679e-06
7 *1722:A *1722:B1 2.75346e-06
8 *1722:A *640:12 5.18884e-05
9 *1722:C2 *1722:A 5.01029e-05
*RES
1 *1709:ZN *1722:A 35.25 
*END

*D_NET *629 0.000190198
*CONN
*I *1719:A1 I *D OAI22_X1
*I *1710:ZN O *D INV_X1
*CAP
1 *1719:A1 6.11309e-05
2 *1710:ZN 6.11309e-05
3 *1719:A1 *1710:A 2.68094e-05
4 *1719:A1 *1713:A1 0
5 *1719:A1 *1824:A1 0
6 *1719:A1 *631:12 4.11266e-05
*RES
1 *1710:ZN *1719:A1 29.0714 
*END

*D_NET *630 0.000437971
*CONN
*I *1712:B I *D XNOR2_X1
*I *1719:A2 I *D OAI22_X1
*I *1711:ZN O *D XNOR2_X1
*CAP
1 *1712:B 0
2 *1719:A2 4.31961e-05
3 *1711:ZN 0.000140676
4 *630:10 0.000183872
5 *1719:A2 *1712:A 3.88456e-06
6 *1719:A2 *1719:B1 7.16188e-07
7 *1719:A2 *1719:B2 2.55331e-06
8 *630:10 *1710:A 0
9 *630:10 *1711:A 6.30726e-05
10 *630:10 *1712:A 0
11 *630:10 *1719:B2 0
*RES
1 *1711:ZN *630:10 20.7857 
2 *630:10 *1719:A2 9.89286 
3 *630:10 *1712:B 5 
*END

*D_NET *631 0.0010109
*CONN
*I *1713:A2 I *D NOR2_X1
*I *1718:C1 I *D AOI221_X1
*I *1824:A2 I *D NAND2_X1
*I *1712:ZN O *D XNOR2_X1
*CAP
1 *1713:A2 0
2 *1718:C1 9.24327e-05
3 *1824:A2 1.17505e-05
4 *1712:ZN 7.39844e-05
5 *631:16 0.000138373
6 *631:12 0.000108174
7 *1718:C1 *1710:A 5.27503e-06
8 *1718:C1 *1717:A 3.01918e-05
9 *1718:C1 *1824:A1 7.19036e-06
10 *1718:C1 *1827:A2 0
11 *1824:A2 *1824:A1 1.66988e-05
12 *1824:A2 *1827:A1 4.37715e-05
13 *631:12 *1712:A 0
14 *631:12 *1722:B1 1.51469e-05
15 *631:12 *1824:A1 5.91963e-06
16 *631:16 *1824:A1 0.000210039
17 *631:16 *1827:A1 0.000168389
18 *631:16 *632:8 4.24402e-05
19 *1719:A1 *631:12 4.11266e-05
*RES
1 *1712:ZN *631:12 24.4286 
2 *631:12 *631:16 16.1071 
3 *631:16 *1824:A2 12.2857 
4 *631:16 *1718:C1 20.25 
5 *631:12 *1713:A2 5 
*END

*D_NET *632 0.000618329
*CONN
*I *1719:B1 I *D OAI22_X1
*I *1827:A1 I *D NOR2_X1
*I *1713:ZN O *D NOR2_X1
*CAP
1 *1719:B1 4.26643e-05
2 *1827:A1 9.12861e-05
3 *1713:ZN 1.86763e-05
4 *632:8 0.000152627
5 *1719:B1 *1719:B2 2.75346e-06
6 *1719:B1 *1722:B1 4.86762e-05
7 *1827:A1 *1824:A1 0
8 *1827:A1 *1827:A2 1.21774e-06
9 *1827:A1 *1828:A1 0
10 *1827:A1 *1828:A3 0
11 *632:8 *1824:A1 5.11191e-06
12 *632:8 *1828:A1 0
13 *1719:A2 *1719:B1 7.16188e-07
14 *1824:A2 *1827:A1 4.37715e-05
15 *631:16 *1827:A1 0.000168389
16 *631:16 *632:8 4.24402e-05
*RES
1 *1713:ZN *632:8 12.9643 
2 *632:8 *1827:A1 23.8929 
3 *632:8 *1719:B1 15.25 
*END

*D_NET *633 0.000198772
*CONN
*I *1716:A1 I *D NOR2_X1
*I *1714:ZN O *D INV_X1
*CAP
1 *1716:A1 6.44457e-05
2 *1714:ZN 6.44457e-05
3 *1716:A1 *1715:B 0
4 *1716:A1 *1716:A2 6.99525e-06
5 *1716:A1 *1717:A 4.24381e-05
6 *1716:A1 *1717:B 2.04476e-05
*RES
1 *1714:ZN *1716:A1 28.3929 
*END

*D_NET *634 0.000207418
*CONN
*I *1717:B I *D XNOR2_X1
*I *1716:A2 I *D NOR2_X1
*I *1715:ZN O *D XNOR2_X1
*CAP
1 *1717:B 1.98989e-05
2 *1716:A2 2.94087e-05
3 *1715:ZN 3.12409e-05
4 *634:8 8.05485e-05
5 *1716:A2 *1714:A 0
6 *1716:A2 *1715:A 1.37673e-05
7 *1716:A2 *1715:B 0
8 *1716:A2 *636:10 0
9 *1717:B *1715:B 0
10 *634:8 *1714:A 0
11 *634:8 *1715:A 5.11118e-06
12 *634:8 *636:10 0
13 *1716:A1 *1716:A2 6.99525e-06
14 *1716:A1 *1717:B 2.04476e-05
*RES
1 *1715:ZN *634:8 13.25 
2 *634:8 *1716:A2 13.5357 
3 *634:8 *1717:B 12.9643 
*END

*D_NET *635 0.000466316
*CONN
*I *1718:A I *D AOI221_X1
*I *1716:ZN O *D NOR2_X1
*CAP
1 *1718:A 0.000153242
2 *1716:ZN 0.000153242
3 *1718:A *1645:B 0
4 *1718:A *1715:A 1.88906e-05
5 *1718:A *1717:A 7.56052e-05
6 *1718:A *1718:B1 1.85634e-05
7 *1718:A *636:10 4.67719e-05
*RES
1 *1716:ZN *1718:A 39.6786 
*END

*D_NET *636 0.000608148
*CONN
*I *1718:B1 I *D AOI221_X1
*I *1826:A2 I *D NOR2_X1
*I *1825:A2 I *D NAND2_X1
*I *1717:ZN O *D XNOR2_X1
*CAP
1 *1718:B1 8.80114e-06
2 *1826:A2 6.93608e-06
3 *1825:A2 4.5573e-05
4 *1717:ZN 0.000137773
5 *636:14 9.775e-05
6 *636:10 0.000191815
7 *1825:A2 *1715:A 0
8 *1825:A2 *1825:A1 8.43215e-07
9 *1825:A2 *748:10 0
10 *1826:A2 *1825:A1 2.16072e-07
11 *1826:A2 *1826:A1 3.09411e-06
12 *636:10 *1714:A 0
13 *636:10 *1715:A 3.51536e-06
14 *636:10 *1717:A 4.64955e-05
15 *636:14 *1715:A 0
16 *1716:A2 *636:10 0
17 *1718:A *1718:B1 1.85634e-05
18 *1718:A *636:10 4.67719e-05
19 *634:8 *636:10 0
*RES
1 *1717:ZN *636:10 21.6071 
2 *636:10 *636:14 5.07143 
3 *636:14 *1825:A2 9.89286 
4 *636:14 *1826:A2 6.25 
5 *636:10 *1718:B1 6.75 
*END

*D_NET *637 0.00040869
*CONN
*I *1719:B2 I *D OAI22_X1
*I *1718:ZN O *D AOI221_X1
*CAP
1 *1719:B2 0.000121601
2 *1718:ZN 0.000121601
3 *1719:B2 *1710:A 0
4 *1719:B2 *1826:A1 0.000160182
5 *1719:A2 *1719:B2 2.55331e-06
6 *1719:B1 *1719:B2 2.75346e-06
7 *630:10 *1719:B2 0
*RES
1 *1718:ZN *1719:B2 35.1429 
*END

*D_NET *638 0.000414912
*CONN
*I *1722:B1 I *D AOI221_X1
*I *1719:ZN O *D OAI22_X1
*CAP
1 *1722:B1 0.000148096
2 *1719:ZN 0.000148096
3 *1722:B1 *1712:A 0
4 *1722:B1 *1828:A1 4.93896e-05
5 *1722:B1 *640:12 2.75346e-06
6 *1719:B1 *1722:B1 4.86762e-05
7 *1722:A *1722:B1 2.75346e-06
8 *631:12 *1722:B1 1.51469e-05
*RES
1 *1719:ZN *1722:B1 26.7857 
*END

*D_NET *639 0.000238664
*CONN
*I *1721:A2 I *D NOR2_X1
*I *1720:ZN O *D XNOR2_X1
*CAP
1 *1721:A2 8.92654e-05
2 *1720:ZN 8.92654e-05
3 *1721:A2 *1703:A 5.41857e-05
4 *1721:A2 *640:12 3.55053e-06
5 *1709:A2 *1721:A2 0
6 *1720:B *1721:A2 0
7 *1722:A *1721:A2 2.39679e-06
*RES
1 *1720:ZN *1721:A2 20.1786 
*END

*D_NET *640 0.000675631
*CONN
*I *1828:A1 I *D NAND4_X1
*I *1722:B2 I *D AOI221_X1
*I *1721:ZN O *D NOR2_X1
*CAP
1 *1828:A1 0.000148625
2 *1722:B2 0
3 *1721:ZN 0.000133608
4 *640:12 0.000282234
5 *1828:A1 *641:12 0
6 *640:12 *1700:B 3.58205e-06
7 *1721:A2 *640:12 3.55053e-06
8 *1722:A *640:12 5.18884e-05
9 *1722:B1 *1828:A1 4.93896e-05
10 *1722:B1 *640:12 2.75346e-06
11 *1827:A1 *1828:A1 0
12 *632:8 *1828:A1 0
*RES
1 *1721:ZN *640:12 30.3929 
2 *640:12 *1722:B2 5 
3 *640:12 *1828:A1 32.2143 
*END

*D_NET *641 0.000629446
*CONN
*I *1723:B2 I *D AOI21_X1
*I *1722:ZN O *D AOI221_X1
*CAP
1 *1723:B2 0
2 *1722:ZN 0.000263509
3 *641:12 0.000263509
4 *641:12 *1829:A3 1.71609e-05
5 *1699:A *641:12 1.39839e-06
6 *1723:B1 *641:12 8.1038e-05
7 *1828:A1 *641:12 0
8 *1829:A1 *641:12 2.11458e-06
9 *618:12 *641:12 7.16188e-07
*RES
1 *1722:ZN *641:12 47.0357 
2 *641:12 *1723:B2 5 
*END

*D_NET *642 0.000420588
*CONN
*I *1724:A I *D AOI21_X1
*I *1723:ZN O *D AOI21_X1
*CAP
1 *1724:A 0.000180777
2 *1723:ZN 0.000180777
3 *1724:A *1645:A 3.41146e-05
4 *1724:A *1647:A 0
5 *1724:A *1678:A 0
6 *1724:A *1829:A3 1.91498e-06
7 *1724:A *748:10 0
8 *1678:B *1724:A 9.30692e-06
9 *1724:B1 *1724:A 1.40196e-06
10 *1829:A1 *1724:A 1.22944e-05
*RES
1 *1723:ZN *1724:A 28.75 
*END

*D_NET *643 0.000332429
*CONN
*I *1726:B I *D OAI211_X1
*I *1724:ZN O *D AOI21_X1
*CAP
1 *1726:B 7.0856e-05
2 *1724:ZN 7.0856e-05
3 *1726:B *1645:A 0
4 *1726:B *1724:B2 2.39679e-06
5 *1724:B1 *1726:B 2.39679e-06
6 *596:12 *1726:B 0.000185923
*RES
1 *1724:ZN *1726:B 31 
*END

*D_NET *644 0.000197908
*CONN
*I *1726:C1 I *D OAI211_X1
*I *1725:ZN O *D INV_X1
*CAP
1 *1726:C1 7.70808e-05
2 *1725:ZN 7.70808e-05
3 *1726:C1 *1679:B 1.43476e-06
4 *1726:C1 *1830:A1 1.87392e-05
5 *1726:A *1726:C1 2.75346e-06
6 *1726:C2 *1726:C1 2.43548e-06
7 *595:10 *1726:C1 6.71316e-06
8 *596:12 *1726:C1 1.16704e-05
*RES
1 *1725:ZN *1726:C1 29 
*END

*D_NET *645 0.000233882
*CONN
*I *1830:A1 I *D NOR2_X1
*I *1726:ZN O *D OAI211_X1
*CAP
1 *1830:A1 0.000103441
2 *1726:ZN 0.000103441
3 *1726:C1 *1830:A1 1.87392e-05
4 *1726:C2 *1830:A1 8.26038e-06
5 *595:10 *1830:A1 0
*RES
1 *1726:ZN *1830:A1 20.9286 
*END

*D_NET *646 7.00785e-05
*CONN
*I *1729:A1 I *D NOR2_X1
*I *1727:ZN O *D INV_X1
*CAP
1 *1729:A1 2.80294e-05
2 *1727:ZN 2.80294e-05
3 *1729:A1 *1729:A2 1.40196e-05
4 *1729:A1 *1800:A 0
5 *1729:A1 *1800:B 0
*RES
1 *1727:ZN *1729:A1 13.25 
*END

*D_NET *647 0.000653183
*CONN
*I *1800:B I *D XNOR2_X1
*I *1729:A2 I *D NOR2_X1
*I *1728:ZN O *D XNOR2_X1
*CAP
1 *1800:B 4.6836e-05
2 *1729:A2 8.61229e-05
3 *1728:ZN 9.20762e-05
4 *647:10 0.000225035
5 *1729:A2 *1688:B 2.09547e-05
6 *1729:A2 *1727:A 3.49085e-06
7 *1729:A2 *742:12 1.47899e-05
8 *1800:B *1728:A 7.40837e-05
9 *1800:B *1800:A 1.85634e-05
10 *647:10 *1688:B 5.57182e-06
11 *647:10 *1704:A 0
12 *647:10 *1728:A 1.80564e-05
13 *647:10 *1728:B 3.35822e-05
14 *1729:A1 *1729:A2 1.40196e-05
15 *1729:A1 *1800:B 0
*RES
1 *1728:ZN *647:10 20.0357 
2 *647:10 *1729:A2 21.25 
3 *647:10 *1800:B 18.4286 
*END

*D_NET *648 0.000164569
*CONN
*I *1823:A1 I *D NOR3_X1
*I *1729:ZN O *D NOR2_X1
*CAP
1 *1823:A1 6.1363e-05
2 *1729:ZN 6.1363e-05
3 *1823:A1 *1800:A 0
4 *1823:A1 *1823:A2 2.75346e-06
5 *1823:A1 *742:12 3.90891e-05
*RES
1 *1729:ZN *1823:A1 17.0357 
*END

*D_NET *649 0.000507814
*CONN
*I *1740:C1 I *D OAI221_X1
*I *1731:B I *D XNOR2_X1
*I *1730:ZN O *D XNOR2_X1
*CAP
1 *1740:C1 4.78421e-05
2 *1731:B 2.89811e-05
3 *1730:ZN 0.000126698
4 *649:10 0.000203521
5 *1731:B *1731:A 1.26998e-05
6 *1731:B *650:10 2.39679e-06
7 *1740:C1 *1731:A 1.30236e-05
8 *1740:C1 *1740:A 6.87788e-06
9 *1740:C1 *1740:C2 3.51992e-06
10 *1740:C1 *650:10 3.09143e-06
11 *649:10 *1683:A 4.44836e-05
12 *649:10 *1730:A 1.46782e-05
*RES
1 *1730:ZN *649:10 19.9286 
2 *649:10 *1731:B 8.53572 
3 *649:10 *1740:C1 10.75 
*END

*D_NET *650 0.000368143
*CONN
*I *1733:B I *D XNOR2_X1
*I *1732:A2 I *D NAND2_X1
*I *1731:ZN O *D XNOR2_X1
*CAP
1 *1733:B 0
2 *1732:A2 4.04412e-05
3 *1731:ZN 4.84576e-05
4 *650:10 8.88987e-05
5 *1732:A2 *1732:A1 8.43215e-07
6 *1732:A2 *1733:A 0
7 *1732:A2 *1739:A 3.60147e-05
8 *1732:A2 *1740:A 3.15734e-05
9 *650:10 *1731:A 2.24822e-06
10 *650:10 *1739:A 6.05851e-05
11 *650:10 *1740:A 5.35925e-05
12 *1731:B *650:10 2.39679e-06
13 *1740:C1 *650:10 3.09143e-06
*RES
1 *1731:ZN *650:10 19.1429 
2 *650:10 *1732:A2 16.25 
3 *650:10 *1733:B 10 
*END

*D_NET *651 0.000362184
*CONN
*I *1740:A I *D OAI221_X1
*I *1732:ZN O *D NAND2_X1
*CAP
1 *1740:A 0.00011981
2 *1732:ZN 0.00011981
3 *1740:A *1731:A 2.9676e-05
4 *1740:A *1740:B1 0
5 *1740:A *1740:B2 8.43215e-07
6 *1740:A *652:10 0
7 *1732:A2 *1740:A 3.15734e-05
8 *1740:C1 *1740:A 6.87788e-06
9 *650:10 *1740:A 5.35925e-05
*RES
1 *1732:ZN *1740:A 35.5357 
*END

*D_NET *652 0.00043916
*CONN
*I *1740:B1 I *D OAI221_X1
*I *1795:A1 I *D NOR2_X1
*I *1733:ZN O *D XNOR2_X1
*CAP
1 *1740:B1 2.92539e-05
2 *1795:A1 8.81875e-05
3 *1733:ZN 7.16006e-05
4 *652:10 0.000189042
5 *1740:B1 *1731:A 1.88334e-06
6 *1740:B1 *1815:A 0
7 *1795:A1 *1733:A 0
8 *1795:A1 *1740:B2 2.08396e-05
9 *1795:A1 *1795:A2 1.21774e-06
10 *1795:A1 *1815:A 2.80752e-05
11 *652:10 *1731:A 0
12 *652:10 *1733:A 9.06043e-06
13 *1740:A *1740:B1 0
14 *1740:A *652:10 0
*RES
1 *1733:ZN *652:10 17.2143 
2 *652:10 *1795:A1 20.25 
3 *652:10 *1740:B1 12.9643 
*END

*D_NET *653 0.000204123
*CONN
*I *1736:A1 I *D NOR2_X1
*I *1734:ZN O *D INV_X1
*CAP
1 *1736:A1 7.94931e-05
2 *1734:ZN 7.94931e-05
3 *1736:A1 *1734:A 2.33831e-05
4 *1736:A1 *1738:A 0
5 *1736:A1 *654:6 4.69533e-06
6 *1736:A1 *656:10 1.70586e-05
*RES
1 *1734:ZN *1736:A1 29.6071 
*END

*D_NET *654 0.000465488
*CONN
*I *1737:B I *D XNOR2_X1
*I *1736:A2 I *D NOR2_X1
*I *1735:ZN O *D XNOR2_X1
*CAP
1 *1737:B 2.47155e-05
2 *1736:A2 2.48137e-05
3 *1735:ZN 0.000126696
4 *654:6 0.000176225
5 *1736:A2 *656:10 6.84295e-05
6 *1737:B *1737:A 3.88456e-06
7 *654:6 *1735:B 1.58933e-05
8 *654:6 *1737:A 2.01347e-05
9 *654:6 *2195:B 0
10 *1736:A1 *654:6 4.69533e-06
*RES
1 *1735:ZN *654:6 18.75 
2 *654:6 *1736:A2 18.6429 
3 *654:6 *1737:B 7.85714 
*END

*D_NET *655 0.000110742
*CONN
*I *1738:A I *D AOI21_X1
*I *1736:ZN O *D NOR2_X1
*CAP
1 *1738:A 5.15072e-05
2 *1736:ZN 5.15072e-05
3 *1738:A *1738:B1 7.72792e-06
4 *1738:A *1794:A 0
5 *1736:A1 *1738:A 0
*RES
1 *1736:ZN *1738:A 15.5714 
*END

*D_NET *656 0.000490789
*CONN
*I *1738:B1 I *D AOI21_X1
*I *1794:B I *D XNOR2_X1
*I *1737:ZN O *D XNOR2_X1
*CAP
1 *1738:B1 3.86627e-06
2 *1794:B 5.71685e-05
3 *1737:ZN 9.45462e-05
4 *656:10 0.000155581
5 *1738:B1 *1738:B2 1.21774e-06
6 *1794:B *1734:A 0
7 *1794:B *1738:B2 2.13261e-05
8 *1794:B *1794:A 5.61423e-05
9 *656:10 *1734:A 0
10 *656:10 *1737:A 7.72537e-06
11 *1736:A1 *656:10 1.70586e-05
12 *1736:A2 *656:10 6.84295e-05
13 *1738:A *1738:B1 7.72792e-06
*RES
1 *1737:ZN *656:10 21.8571 
2 *656:10 *1794:B 18.2143 
3 *656:10 *1738:B1 10.75 
*END

*D_NET *657 0.00051914
*CONN
*I *1740:B2 I *D OAI221_X1
*I *1738:ZN O *D AOI21_X1
*CAP
1 *1740:B2 0.00021319
2 *1738:ZN 0.00021319
3 *1740:B2 *1731:A 0
4 *1740:B2 *1738:B2 4.45934e-05
5 *1740:B2 *1794:A 2.23871e-06
6 *1740:B2 *1795:A2 0
7 *1740:B2 *1796:A 1.65194e-05
8 *1740:B2 *1796:B1 7.72537e-06
9 *1740:A *1740:B2 8.43215e-07
10 *1795:A1 *1740:B2 2.08396e-05
*RES
1 *1738:ZN *1740:B2 33.6429 
*END

*D_NET *658 0.000174986
*CONN
*I *1740:C2 I *D OAI221_X1
*I *1739:ZN O *D INV_X1
*CAP
1 *1740:C2 7.69098e-05
2 *1739:ZN 7.69098e-05
3 *1740:C2 *1731:A 1.76461e-05
4 *1740:C2 *1815:A 0
5 *1740:C2 *1816:A2 0
6 *1740:C1 *1740:C2 3.51992e-06
*RES
1 *1739:ZN *1740:C2 28.0714 
*END

*D_NET *659 0.000228925
*CONN
*I *1796:A I *D AOI21_X1
*I *1740:ZN O *D OAI221_X1
*CAP
1 *1796:A 8.43129e-05
2 *1740:ZN 8.43129e-05
3 *1796:A *1731:A 4.0688e-05
4 *1796:A *1796:B1 3.09143e-06
5 *1740:B2 *1796:A 1.65194e-05
*RES
1 *1740:ZN *1796:A 20.6786 
*END

*D_NET *660 0.000548247
*CONN
*I *1742:B I *D XNOR2_X1
*I *1751:A2 I *D NOR2_X1
*I *1741:ZN O *D XNOR2_X1
*CAP
1 *1742:B 0
2 *1751:A2 5.43716e-05
3 *1741:ZN 8.2073e-05
4 *660:12 0.000136445
5 *1751:A2 *1741:B 0
6 *1751:A2 *1750:A 2.96955e-05
7 *1751:A2 *1751:A1 1.4048e-05
8 *660:12 *1741:B 0.000185133
9 *660:12 *1742:A 3.35822e-05
10 *660:12 *1750:A 1.28987e-05
*RES
1 *1741:ZN *660:12 28 
2 *660:12 *1751:A2 20.5714 
3 *660:12 *1742:B 5 
*END

*D_NET *661 0.000288013
*CONN
*I *1752:B1 I *D AOI21_X1
*I *1743:B I *D XOR2_X1
*I *1742:ZN O *D XNOR2_X1
*CAP
1 *1752:B1 4.93902e-05
2 *1743:B 0.000140798
3 *1742:ZN 9.14077e-05
4 *1743:B *1752:A 0
5 *1752:B1 *1743:A 1.76665e-06
6 *1752:B1 *1793:B 4.65067e-06
*RES
1 *1742:ZN *1743:B 19.1786 
2 *1743:B *1752:B1 15.5714 
*END

*D_NET *662 0.000542768
*CONN
*I *1749:A I *D OAI21_X1
*I *1792:A I *D OAI211_X1
*I *1743:Z O *D XOR2_X1
*CAP
1 *1749:A 1.44297e-05
2 *1792:A 3.57022e-05
3 *1743:Z 0.000102261
4 *662:12 0.000152393
5 *1749:A *1749:B1 1.50966e-05
6 *1792:A *1749:B1 8.06325e-05
7 *1792:A *1752:B2 4.76429e-07
8 *1792:A *1791:A2 1.53691e-06
9 *1792:A *1792:B 1.8031e-05
10 *1792:A *1792:C1 1.25215e-05
11 *1792:A *1793:C2 3.3371e-05
12 *662:12 *1749:B1 6.54588e-06
13 *662:12 *1752:A 1.82823e-05
14 *662:12 *1752:B2 2.52511e-05
15 *662:12 *1791:A1 0
16 *662:12 *1793:A 2.26304e-06
17 *662:12 *1793:B 0
18 *662:12 *1793:C2 2.39732e-05
19 *662:12 *1796:B1 0
*RES
1 *1743:Z *662:12 28.5357 
2 *662:12 *1792:A 21.75 
3 *662:12 *1749:A 6.75 
*END

*D_NET *663 0.000272957
*CONN
*I *1746:A1 I *D NOR2_X1
*I *1744:ZN O *D INV_X1
*CAP
1 *1746:A1 4.86746e-05
2 *1744:ZN 4.86746e-05
3 *1746:A1 *1745:A 0
4 *1746:A1 *1746:A2 1.21774e-06
5 *1746:A1 *1748:A1 6.56996e-05
6 *1746:A1 *1748:A2 0
7 *1746:A1 *666:8 6.97608e-05
8 *1746:A1 *1297:18 3.893e-05
*RES
1 *1744:ZN *1746:A1 29.8214 
*END

*D_NET *664 0.000402083
*CONN
*I *1746:A2 I *D NOR2_X1
*I *1747:B I *D XNOR2_X1
*I *1745:ZN O *D XNOR2_X1
*CAP
1 *1746:A2 5.20387e-05
2 *1747:B 0
3 *1745:ZN 0.000118841
4 *664:8 0.000170879
5 *1746:A2 *1745:A 0
6 *1746:A2 *1748:A1 0
7 *664:8 *1745:A 5.91072e-05
8 *1746:A1 *1746:A2 1.21774e-06
*RES
1 *1745:ZN *664:8 19.1786 
2 *664:8 *1747:B 5 
3 *664:8 *1746:A2 10.5714 
*END

*D_NET *665 0.000510873
*CONN
*I *1749:B1 I *D OAI21_X1
*I *1746:ZN O *D NOR2_X1
*CAP
1 *1749:B1 0.000107998
2 *1746:ZN 0.000107998
3 *1749:B1 *1747:A 0
4 *1749:B1 *1749:B2 1.21774e-06
5 *1749:B1 *1752:B2 2.65895e-05
6 *1749:B1 *1791:A1 1.60494e-06
7 *1749:B1 *1792:C1 1.94663e-05
8 *1749:B1 *1793:C2 1.90574e-06
9 *1749:B1 *2140:B 7.62294e-06
10 *1749:B1 *1297:18 0.000134194
11 *1749:A *1749:B1 1.50966e-05
12 *1792:A *1749:B1 8.06325e-05
13 *662:12 *1749:B1 6.54588e-06
*RES
1 *1746:ZN *1749:B1 37.5 
*END

*D_NET *666 0.000498565
*CONN
*I *1792:C1 I *D OAI211_X1
*I *1748:A2 I *D AND2_X1
*I *1747:ZN O *D XNOR2_X1
*CAP
1 *1792:C1 3.727e-05
2 *1748:A2 1.13013e-05
3 *1747:ZN 2.96063e-05
4 *666:8 7.81776e-05
5 *1748:A2 *1748:A1 2.75346e-06
6 *1748:A2 *1297:18 2.83434e-06
7 *1792:C1 *1791:A2 2.08416e-06
8 *1792:C1 *1793:C2 1.72405e-05
9 *1792:C1 *667:8 4.62745e-06
10 *1792:C1 *1297:18 4.88948e-05
11 *666:8 *1748:A1 1.50871e-05
12 *666:8 *1297:18 0.000146939
13 *1746:A1 *1748:A2 0
14 *1746:A1 *666:8 6.97608e-05
15 *1749:B1 *1792:C1 1.94663e-05
16 *1792:A *1792:C1 1.25215e-05
*RES
1 *1747:ZN *666:8 17.7143 
2 *666:8 *1748:A2 11.25 
3 *666:8 *1792:C1 16.25 
*END

*D_NET *667 0.000346723
*CONN
*I *1749:B2 I *D OAI21_X1
*I *1791:A1 I *D NOR2_X1
*I *1748:ZN O *D AND2_X1
*CAP
1 *1749:B2 1.69993e-05
2 *1791:A1 5.96326e-05
3 *1748:ZN 4.46067e-05
4 *667:8 0.000121239
5 *1749:B2 *1743:A 0
6 *1749:B2 *1793:C2 9.91569e-06
7 *1791:A1 *1791:A2 2.87703e-06
8 *1791:A1 *1792:B 3.58513e-05
9 *667:8 *1743:A 0
10 *667:8 *1793:C2 1.87059e-05
11 *667:8 *1297:18 2.94455e-05
12 *1749:B1 *1749:B2 1.21774e-06
13 *1749:B1 *1791:A1 1.60494e-06
14 *1792:C1 *667:8 4.62745e-06
15 *662:12 *1791:A1 0
*RES
1 *1748:ZN *667:8 15.6786 
2 *667:8 *1791:A1 16.8571 
3 *667:8 *1749:B2 12.3571 
*END

*D_NET *668 0.000347005
*CONN
*I *1793:A I *D OAI211_X1
*I *1749:ZN O *D OAI21_X1
*CAP
1 *1793:A 7.158e-05
2 *1749:ZN 7.158e-05
3 *1793:A *1743:A 0
4 *1793:A *1793:C2 0.000171595
5 *1793:A *1796:B1 2.99872e-05
6 *662:12 *1793:A 2.26304e-06
*RES
1 *1749:ZN *1793:A 31.1071 
*END

*D_NET *669 0.000236497
*CONN
*I *1751:A1 I *D NOR2_X1
*I *1750:ZN O *D INV_X1
*CAP
1 *1751:A1 8.36519e-05
2 *1750:ZN 8.36519e-05
3 *1751:A1 *1741:B 0
4 *1751:A1 *1742:A 9.62051e-07
5 *1751:A1 *1750:A 5.41831e-05
6 *1751:A2 *1751:A1 1.4048e-05
*RES
1 *1750:ZN *1751:A1 29.3929 
*END

*D_NET *670 0.000385909
*CONN
*I *1752:A I *D AOI21_X1
*I *1751:ZN O *D NOR2_X1
*CAP
1 *1752:A 0.000169323
2 *1751:ZN 0.000169323
3 *1752:A *1738:B2 2.89806e-05
4 *1752:A *1796:B1 0
5 *1743:B *1752:A 0
6 *662:12 *1752:A 1.82823e-05
*RES
1 *1751:ZN *1752:A 37.8214 
*END

*D_NET *671 0.000169209
*CONN
*I *1793:B I *D OAI211_X1
*I *1752:ZN O *D AOI21_X1
*CAP
1 *1793:B 6.74486e-05
2 *1752:ZN 6.74486e-05
3 *1793:B *1743:A 2.88181e-05
4 *1793:B *1793:C1 8.43215e-07
5 *1752:B1 *1793:B 4.65067e-06
6 *662:12 *1793:B 0
*RES
1 *1752:ZN *1793:B 17.1429 
*END

*D_NET *672 0.00061534
*CONN
*I *1787:A I *D OAI21_X1
*I *1784:A3 I *D OAI33_X1
*I *1753:Z O *D XOR2_X1
*CAP
1 *1787:A 0.000138303
2 *1784:A3 4.65636e-05
3 *1753:Z 5.68165e-05
4 *672:8 0.000241683
5 *1784:A3 *1753:A 3.0227e-05
6 *1784:A3 *1784:A2 2.39679e-06
7 *1784:A3 *1784:B3 0
8 *1784:A3 *1785:B 3.65597e-06
9 *1784:A3 *1789:A1 1.74934e-05
10 *1787:A *1785:B 2.80752e-05
11 *1787:A *1787:B1 7.19036e-06
12 *1787:A *1789:A1 0
13 *672:8 *1753:A 3.69264e-05
14 *672:8 *1753:B 1.53859e-06
15 *672:8 *1784:A1 4.47034e-06
*RES
1 *1753:Z *672:8 17.0357 
2 *672:8 *1784:A3 16.0714 
3 *672:8 *1787:A 24.25 
*END

*D_NET *673 0.000662585
*CONN
*I *1755:A2 I *D AND2_X1
*I *1782:B1 I *D OAI21_X1
*I *1756:B I *D XOR2_X1
*I *1754:Z O *D XOR2_X1
*CAP
1 *1755:A2 3.50024e-05
2 *1782:B1 5.67923e-06
3 *1756:B 5.55322e-05
4 *1754:Z 6.14037e-05
5 *673:19 6.21992e-05
6 *673:8 0.000138453
7 *1755:A2 *1755:A1 6.83806e-06
8 *1755:A2 *1782:A 5.54348e-05
9 *1755:A2 *1784:B2 1.68643e-06
10 *1756:B *1784:B2 0
11 *1782:B1 *1784:B2 1.40196e-06
12 *673:8 *1782:B2 0.000199166
13 *673:19 *1755:A1 9.55059e-06
14 *673:19 *1782:B2 3.02372e-05
*RES
1 *1754:Z *673:8 20.4286 
2 *673:8 *1756:B 15.25 
3 *673:8 *673:19 2.96429 
4 *673:19 *1782:B1 10.75 
5 *673:19 *1755:A2 14.3929 
*END

*D_NET *674 0.000253936
*CONN
*I *1784:B1 I *D OAI33_X1
*I *1755:ZN O *D AND2_X1
*CAP
1 *1784:B1 8.21422e-05
2 *1755:ZN 8.21422e-05
3 *1784:B1 *1784:A2 2.14856e-06
4 *1784:B1 *1784:B2 8.75034e-05
5 *1784:B1 *1789:A1 0
*RES
1 *1755:ZN *1784:B1 20.5357 
*END

*D_NET *675 0.000117442
*CONN
*I *1757:A2 I *D NOR2_X1
*I *1756:Z O *D XOR2_X1
*CAP
1 *1757:A2 5.40909e-05
2 *1756:Z 5.40909e-05
3 *1757:A2 *1756:A 9.57492e-07
4 *1757:A2 *1784:B2 8.30282e-06
*RES
1 *1756:Z *1757:A2 15.8571 
*END

*D_NET *676 0.000100364
*CONN
*I *1781:A1 I *D NOR3_X1
*I *1757:ZN O *D NOR2_X1
*CAP
1 *1781:A1 4.29469e-05
2 *1757:ZN 4.29469e-05
3 *1781:A1 *1781:A2 7.16188e-07
4 *1781:A1 *1784:B2 1.37542e-05
*RES
1 *1757:ZN *1781:A1 14.8571 
*END

*D_NET *677 0.000665755
*CONN
*I *1760:B1 I *D OAI21_X1
*I *1761:A3 I *D NOR3_X1
*I *1759:A2 I *D NAND2_X1
*I *1758:Z O *D XOR2_X1
*CAP
1 *1760:B1 5.15682e-05
2 *1761:A3 6.09993e-06
3 *1759:A2 8.46039e-06
4 *1758:Z 1.0882e-05
5 *677:21 7.07989e-05
6 *677:8 3.24732e-05
7 *1759:A2 *1758:A 0
8 *1759:A2 *1759:A1 8.43215e-07
9 *1760:B1 *1758:B 0.000106874
10 *1760:B1 *1760:B2 8.81384e-05
11 *1760:B1 *1761:A1 8.43215e-07
12 *1760:B1 *1762:B 1.01247e-05
13 *1761:A3 *1761:A1 2.52965e-06
14 *1761:A3 *1762:B 7.19036e-06
15 *677:8 *1758:B 6.92191e-05
16 *677:8 *1761:A2 6.92191e-05
17 *677:21 *1758:B 6.78878e-05
18 *677:21 *1761:A2 6.26024e-05
*RES
1 *1758:Z *677:8 13.6429 
2 *677:8 *1759:A2 10.75 
3 *677:8 *677:21 8.64286 
4 *677:21 *1761:A3 5.75 
5 *677:21 *1760:B1 23.6786 
*END

*D_NET *678 0.000150363
*CONN
*I *1777:A I *D OAI211_X1
*I *1759:ZN O *D NAND2_X1
*CAP
1 *1777:A 6.40457e-05
2 *1759:ZN 6.40457e-05
3 *1777:A *1759:A1 0
4 *1777:A *1762:B 1.52425e-06
5 *1777:A *1777:C1 2.39867e-06
6 *1777:A *1777:C2 1.83486e-05
*RES
1 *1759:ZN *1777:A 26.2143 
*END

*D_NET *679 0.000149206
*CONN
*I *1777:B I *D OAI211_X1
*I *1760:ZN O *D OAI21_X1
*CAP
1 *1777:B 6.66548e-05
2 *1760:ZN 6.66548e-05
3 *1777:B *1762:B 0
4 *1777:B *1777:C1 1.5896e-05
*RES
1 *1760:ZN *1777:B 17.3929 
*END

*D_NET *680 0.000106883
*CONN
*I *1777:C1 I *D OAI211_X1
*I *1761:ZN O *D NOR3_X1
*CAP
1 *1777:C1 3.79465e-05
2 *1761:ZN 3.79465e-05
3 *1777:C1 *1762:B 7.72792e-06
4 *1777:C1 *1777:C2 4.9678e-06
5 *1777:A *1777:C1 2.39867e-06
6 *1777:B *1777:C1 1.5896e-05
*RES
1 *1761:ZN *1777:C1 14.6786 
*END

*D_NET *681 0.000432771
*CONN
*I *1763:A2 I *D OR2_X1
*I *1776:C2 I *D AOI221_X1
*I *1762:Z O *D XOR2_X1
*CAP
1 *1763:A2 5.69823e-06
2 *1776:C2 2.72594e-05
3 *1762:Z 5.29344e-05
4 *681:10 8.58919e-05
5 *1763:A2 *1763:A1 2.75346e-06
6 *1763:A2 *1856:A 0
7 *1776:C2 *1762:A 0
8 *1776:C2 *1776:A 2.75346e-06
9 *1776:C2 *1776:B1 2.43548e-06
10 *1776:C2 *1776:C1 1.21774e-06
11 *1776:C2 *1777:C2 5.62244e-05
12 *1776:C2 *682:8 3.05921e-05
13 *681:10 *1762:A 2.52965e-06
14 *681:10 *1762:B 7.19036e-06
15 *681:10 *1777:C2 0.000145066
16 *681:10 *682:8 1.02238e-05
*RES
1 *1762:Z *681:10 18.4643 
2 *681:10 *1776:C2 15.0714 
3 *681:10 *1763:A2 10.75 
*END

*D_NET *682 0.000593595
*CONN
*I *1764:A2 I *D AND2_X1
*I *1775:A2 I *D OR2_X1
*I *1763:ZN O *D OR2_X1
*CAP
1 *1764:A2 6.58985e-06
2 *1775:A2 2.10345e-05
3 *1763:ZN 5.30368e-05
4 *682:8 8.06612e-05
5 *1764:A2 *1764:A1 2.39679e-06
6 *1775:A2 *1764:A1 9.55318e-06
7 *1775:A2 *1776:B2 5.62244e-05
8 *1775:A2 *1857:A 0
9 *1775:A2 *1231:40 8.27554e-05
10 *682:8 *1762:A 0
11 *682:8 *1763:A1 4.26902e-05
12 *682:8 *1776:B2 6.92212e-05
13 *682:8 *1231:40 0.000128615
14 *1776:C2 *682:8 3.05921e-05
15 *681:10 *682:8 1.02238e-05
*RES
1 *1763:ZN *682:8 21.1071 
2 *682:8 *1775:A2 15.0714 
3 *682:8 *1764:A2 10.75 
*END

*D_NET *683 0.000100041
*CONN
*I *1776:A I *D AOI221_X1
*I *1764:ZN O *D AND2_X1
*CAP
1 *1776:A 4.67079e-05
2 *1764:ZN 4.67079e-05
3 *1776:A *1776:B1 2.75346e-06
4 *1776:A *1776:C1 1.11792e-06
5 *1776:C2 *1776:A 2.75346e-06
*RES
1 *1764:ZN *1776:A 14.8929 
*END

*D_NET *684 0.000662129
*CONN
*I *1773:A2 I *D NOR2_X1
*I *1772:B1 I *D AOI21_X1
*I *1766:A3 I *D NOR3_X1
*I *1765:Z O *D XOR2_X1
*CAP
1 *1773:A2 5.02645e-05
2 *1772:B1 1.89171e-05
3 *1766:A3 1.27878e-05
4 *1765:Z 9.69017e-05
5 *684:19 0.000102949
6 *684:8 0.000143457
7 *1766:A3 *1766:A2 7.19036e-06
8 *1766:A3 *1774:A2 1.08036e-06
9 *1772:B1 *1766:A2 2.96955e-05
10 *1772:B1 *1772:B2 1.21774e-06
11 *1772:B1 *1774:A2 5.86754e-06
12 *1773:A2 *1772:B2 1.60038e-06
13 *1773:A2 *1774:B2 1.19624e-05
14 *1773:A2 *693:8 2.87703e-06
15 *1773:A2 *1230:25 5.11574e-06
16 *684:8 *1767:B1 0
17 *684:8 *1771:C1 3.35822e-05
18 *684:8 *1774:A2 3.35158e-06
19 *684:8 *1413:14 0
20 *684:19 *1625:A 0
21 *684:19 *1766:A2 0.000115373
22 *684:19 *1774:A2 1.79373e-05
*RES
1 *1765:Z *684:8 15.3571 
2 *684:8 *1766:A3 6.25 
3 *684:8 *684:19 11.3571 
4 *684:19 *1772:B1 12.8571 
5 *684:19 *1773:A2 15.75 
*END

*D_NET *685 0.000101166
*CONN
*I *1774:A1 I *D OAI22_X1
*I *1766:ZN O *D NOR3_X1
*CAP
1 *1774:A1 4.45839e-05
2 *1766:ZN 4.45839e-05
3 *1774:A1 *1766:A1 0
4 *1774:A1 *1774:A2 2.39679e-06
5 *1774:A1 *1774:B1 1.87369e-06
6 *1774:A1 *693:8 7.72792e-06
*RES
1 *1766:ZN *1774:A1 14.8929 
*END

*D_NET *686 0.000182018
*CONN
*I *1768:A I *D INV_X1
*I *1767:ZN O *D OAI21_X1
*CAP
1 *1768:A 7.16254e-05
2 *1767:ZN 7.16254e-05
3 *1768:A *1766:A2 7.14654e-06
4 *1768:A *1767:B1 5.10087e-06
5 *1768:A *1771:C2 0
6 *1768:A *1774:A2 2.38965e-05
7 *1768:A *1229:36 0
8 *1768:A *1230:19 2.62371e-06
*RES
1 *1767:ZN *1768:A 28.0714 
*END

*D_NET *687 0.000221918
*CONN
*I *1771:A I *D AOI221_X1
*I *1768:ZN O *D INV_X1
*CAP
1 *1771:A 2.46392e-05
2 *1768:ZN 2.46392e-05
3 *1771:A *1767:B1 2.77008e-06
4 *1771:A *1771:B1 8.26038e-06
5 *1771:A *1771:C1 5.59765e-05
6 *1771:A *1771:C2 7.72537e-06
7 *1771:A *1229:36 3.48838e-06
8 *1771:A *1413:14 9.44188e-05
*RES
1 *1768:ZN *1771:A 25.75 
*END

*D_NET *688 0.000352032
*CONN
*I *1771:B1 I *D AOI221_X1
*I *1769:Z O *D XOR2_X1
*CAP
1 *1771:B1 0.000133778
2 *1769:Z 0.000133778
3 *1771:B1 *1769:B 5.78021e-05
4 *1771:B1 *1770:A2 0
5 *1771:B1 *1771:C2 1.39292e-05
6 *1771:B1 *1229:36 0
7 *1771:B1 *1413:14 4.48425e-06
8 *1771:A *1771:B1 8.26038e-06
*RES
1 *1769:Z *1771:B1 37.3929 
*END

*D_NET *689 5.40343e-05
*CONN
*I *1771:B2 I *D AOI221_X1
*I *1770:ZN O *D OR3_X1
*CAP
1 *1771:B2 9.79808e-06
2 *1770:ZN 9.79808e-06
3 *1771:B2 *1229:36 1.72191e-05
4 *1771:B2 *1413:14 1.72191e-05
*RES
1 *1770:ZN *1771:B2 22.2857 
*END

*D_NET *690 0.000697277
*CONN
*I *1774:A2 I *D OAI22_X1
*I *1771:ZN O *D AOI221_X1
*CAP
1 *1774:A2 0.000140679
2 *1771:ZN 0.000140679
3 *1774:A2 *1625:A 7.66675e-07
4 *1774:A2 *1766:A2 3.28903e-05
5 *1774:A2 *1767:B1 0.000302335
6 *1774:A2 *1771:C1 7.99676e-06
7 *1774:A2 *1229:36 1.74002e-05
8 *1766:A3 *1774:A2 1.08036e-06
9 *1768:A *1774:A2 2.38965e-05
10 *1772:B1 *1774:A2 5.86754e-06
11 *1774:A1 *1774:A2 2.39679e-06
12 *684:8 *1774:A2 3.35158e-06
13 *684:19 *1774:A2 1.79373e-05
*RES
1 *1771:ZN *1774:A2 43.5714 
*END

*D_NET *691 0.000173917
*CONN
*I *1774:B1 I *D OAI22_X1
*I *1772:ZN O *D AOI21_X1
*CAP
1 *1774:B1 3.56645e-05
2 *1772:ZN 3.56645e-05
3 *1774:B1 *1766:A1 6.76378e-05
4 *1774:B1 *1773:A1 3.06181e-06
5 *1774:B1 *1774:B2 1.74934e-05
6 *1774:B1 *693:8 1.25215e-05
7 *1774:A1 *1774:B1 1.87369e-06
*RES
1 *1772:ZN *1774:B1 25.3929 
*END

*D_NET *692 0.000103658
*CONN
*I *1774:B2 I *D OAI22_X1
*I *1773:ZN O *D NOR2_X1
*CAP
1 *1774:B2 3.44468e-05
2 *1773:ZN 3.44468e-05
3 *1774:B2 *693:8 5.30816e-06
4 *1773:A2 *1774:B2 1.19624e-05
5 *1774:B1 *1774:B2 1.74934e-05
*RES
1 *1773:ZN *1774:B2 14.1786 
*END

*D_NET *693 0.001015
*CONN
*I *1776:B1 I *D AOI221_X1
*I *1774:ZN O *D OAI22_X1
*CAP
1 *1776:B1 7.11701e-05
2 *1774:ZN 0.000410917
3 *693:8 0.000482087
4 *693:8 *1626:A 0
5 *693:8 *1857:B 0
6 *693:8 *1858:A1 1.53342e-05
7 *693:8 *1858:A2 1.86809e-06
8 *693:8 *1860:A1 0
9 *693:8 *1863:A 0
10 *693:8 *1865:S 0
11 *693:8 *766:227 0
12 *1773:A2 *693:8 2.87703e-06
13 *1774:A1 *693:8 7.72792e-06
14 *1774:B1 *693:8 1.25215e-05
15 *1774:B2 *693:8 5.30816e-06
16 *1776:A *1776:B1 2.75346e-06
17 *1776:C2 *1776:B1 2.43548e-06
*RES
1 *1774:ZN *693:8 45.3214 
2 *693:8 *1776:B1 12.1429 
*END

*D_NET *694 0.000235684
*CONN
*I *1776:B2 I *D AOI221_X1
*I *1775:ZN O *D OR2_X1
*CAP
1 *1776:B2 3.35041e-05
2 *1775:ZN 3.35041e-05
3 *1776:B2 *1762:A 0
4 *1776:B2 *1764:A1 4.32298e-05
5 *1775:A2 *1776:B2 5.62244e-05
6 *682:8 *1776:B2 6.92212e-05
*RES
1 *1775:ZN *1776:B2 26.3571 
*END

*D_NET *695 0.000664014
*CONN
*I *1777:C2 I *D OAI211_X1
*I *1776:ZN O *D AOI221_X1
*CAP
1 *1777:C2 0.000188572
2 *1776:ZN 0.000188572
3 *1777:C2 *1762:A 0
4 *1777:C2 *1762:B 6.22622e-05
5 *1776:C2 *1777:C2 5.62244e-05
6 *1777:A *1777:C2 1.83486e-05
7 *1777:C1 *1777:C2 4.9678e-06
8 *681:10 *1777:C2 0.000145066
*RES
1 *1776:ZN *1777:C2 46.6072 
*END

*D_NET *696 0.000511739
*CONN
*I *1780:C1 I *D AOI211_X1
*I *1779:B I *D AOI211_X1
*I *1777:ZN O *D OAI211_X1
*CAP
1 *1780:C1 0
2 *1779:B 1.80987e-05
3 *1777:ZN 0.000165324
4 *696:10 0.000183423
5 *1779:B *1566:B 0
6 *1779:B *1780:B 8.06346e-05
7 *1779:B *1780:C2 5.62244e-05
8 *696:10 *1780:B 7.19036e-06
9 *696:10 *1780:C2 8.43215e-07
10 *696:10 *1781:A3 0
*RES
1 *1777:ZN *696:10 21.4286 
2 *696:10 *1779:B 19.3214 
3 *696:10 *1780:C1 5 
*END

*D_NET *697 0.000456655
*CONN
*I *1780:B I *D AOI211_X1
*I *1779:C1 I *D AOI211_X1
*I *1778:Z O *D XOR2_X1
*CAP
1 *1780:B 3.40803e-05
2 *1779:C1 6.0763e-06
3 *1778:Z 6.6843e-05
4 *697:10 0.000107
5 *1779:C1 *1779:A 3.09143e-06
6 *1780:B *1566:B 6.38328e-07
7 *1780:B *1778:B 0
8 *1780:B *1779:A 8.08825e-05
9 *1780:B *1780:C2 3.22858e-06
10 *697:10 *1778:B 0
11 *697:10 *1779:A 0
12 *697:10 *1779:C2 5.67661e-05
13 *697:10 *1780:C2 1.02238e-05
14 *1779:B *1780:B 8.06346e-05
15 *696:10 *1780:B 7.19036e-06
*RES
1 *1778:Z *697:10 18.0714 
2 *697:10 *1779:C1 10.75 
3 *697:10 *1780:B 16.4286 
*END

*D_NET *698 0.000305336
*CONN
*I *1781:A2 I *D NOR3_X1
*I *1779:ZN O *D AOI211_X1
*CAP
1 *1781:A2 0.000140187
2 *1779:ZN 0.000140187
3 *1781:A2 *1566:B 0
4 *1781:A2 *1568:A 0
5 *1781:A2 *1695:A 0
6 *1781:A2 *1781:A3 2.42461e-05
7 *1781:A2 *1784:B2 0
8 *1781:A1 *1781:A2 7.16188e-07
*RES
1 *1779:ZN *1781:A2 34 
*END

*D_NET *699 0.000213776
*CONN
*I *1781:A3 I *D NOR3_X1
*I *1780:ZN O *D AOI211_X1
*CAP
1 *1781:A3 9.3005e-05
2 *1780:ZN 9.3005e-05
3 *1781:A3 *1566:B 3.51992e-06
4 *1781:A2 *1781:A3 2.42461e-05
5 *696:10 *1781:A3 0
*RES
1 *1780:ZN *1781:A3 19.6786 
*END

*D_NET *700 0.000634965
*CONN
*I *1784:B2 I *D OAI33_X1
*I *1781:ZN O *D NOR3_X1
*CAP
1 *1784:B2 0.000243808
2 *1781:ZN 0.000243808
3 *1784:B2 *1754:B 6.07323e-06
4 *1784:B2 *1755:A1 7.19036e-06
5 *1784:B2 *1756:A 0
6 *1784:B2 *1783:A 1.86818e-05
7 *1784:B2 *1784:B3 2.75346e-06
8 *1755:A2 *1784:B2 1.68643e-06
9 *1756:B *1784:B2 0
10 *1757:A2 *1784:B2 8.30282e-06
11 *1781:A1 *1784:B2 1.37542e-05
12 *1781:A2 *1784:B2 0
13 *1782:B1 *1784:B2 1.40196e-06
14 *1784:B1 *1784:B2 8.75034e-05
*RES
1 *1781:ZN *1784:B2 38.7143 
*END

*D_NET *701 0.000286856
*CONN
*I *1783:A I *D INV_X1
*I *1782:ZN O *D OAI21_X1
*CAP
1 *1783:A 0.000126233
2 *1782:ZN 0.000126233
3 *1783:A *1784:B3 1.57087e-05
4 *1783:A *1789:A1 0
5 *1784:B2 *1783:A 1.86818e-05
*RES
1 *1782:ZN *1783:A 23.75 
*END

*D_NET *702 0.000101389
*CONN
*I *1784:B3 I *D OAI33_X1
*I *1783:ZN O *D INV_X1
*CAP
1 *1784:B3 4.14635e-05
2 *1783:ZN 4.14635e-05
3 *1784:B3 *1789:A1 0
4 *1783:A *1784:B3 1.57087e-05
5 *1784:A3 *1784:B3 0
6 *1784:B2 *1784:B3 2.75346e-06
*RES
1 *1783:ZN *1784:B3 14.6786 
*END

*D_NET *703 0.000499663
*CONN
*I *1789:A1 I *D AND4_X1
*I *1784:ZN O *D OAI33_X1
*CAP
1 *1789:A1 0.000228899
2 *1784:ZN 0.000228899
3 *1789:A1 *1784:A2 1.68643e-06
4 *1789:A1 *1785:B 3.51992e-06
5 *1789:A1 *1787:B2 6.48216e-07
6 *1789:A1 *1788:B1 0
7 *1789:A1 *1789:A2 2.39679e-06
8 *1789:A1 *1789:A3 1.35573e-05
9 *1789:A1 *1789:A4 2.56243e-06
10 *1783:A *1789:A1 0
11 *1784:A3 *1789:A1 1.74934e-05
12 *1784:B1 *1789:A1 0
13 *1784:B3 *1789:A1 0
14 *1787:A *1789:A1 0
*RES
1 *1784:ZN *1789:A1 33.3572 
*END

*D_NET *704 0.000897484
*CONN
*I *1788:B1 I *D AOI22_X1
*I *1786:B1 I *D OAI21_X1
*I *1790:A3 I *D NOR3_X1
*I *1785:Z O *D XOR2_X1
*CAP
1 *1788:B1 7.60559e-05
2 *1786:B1 8.89516e-06
3 *1790:A3 2.70398e-05
4 *1785:Z 0.000135983
5 *704:21 9.88793e-05
6 *704:8 0.000176951
7 *1786:B1 *1786:A 1.25189e-05
8 *1786:B1 *1786:B2 4.77786e-06
9 *1788:B1 *1745:B 0
10 *1788:B1 *1786:A 3.20586e-05
11 *1788:B1 *1789:A4 2.20333e-05
12 *1788:B1 *1790:A1 0.000154004
13 *1790:A3 *1745:B 6.03486e-06
14 *1790:A3 *1786:B2 2.50882e-05
15 *1790:A3 *1790:A1 4.31977e-05
16 *1790:A3 *1790:A2 1.32323e-05
17 *704:8 *1562:B 2.52965e-06
18 *704:8 *1745:B 0
19 *704:8 *1786:A 9.66611e-07
20 *704:8 *1786:B2 1.20695e-05
21 *704:8 *1790:A2 1.29033e-06
22 *704:21 *1562:B 6.79052e-07
23 *704:21 *1786:B2 5.64879e-06
24 *704:21 *1790:A1 3.75501e-05
25 *1789:A1 *1788:B1 0
*RES
1 *1785:Z *704:8 23.25 
2 *704:8 *1790:A3 14.8929 
3 *704:8 *704:21 2.28572 
4 *704:21 *1786:B1 11.25 
5 *704:21 *1788:B1 22.1429 
*END

*D_NET *705 0.000322931
*CONN
*I *1789:A2 I *D AND4_X1
*I *1786:ZN O *D OAI21_X1
*CAP
1 *1789:A2 9.43077e-05
2 *1786:ZN 9.43077e-05
3 *1789:A2 *1745:B 8.27554e-05
4 *1789:A2 *1789:A3 2.39679e-06
5 *1789:A2 *1789:A4 2.67562e-05
6 *1789:A2 *1790:A1 2.00103e-05
7 *1789:A1 *1789:A2 2.39679e-06
*RES
1 *1786:ZN *1789:A2 33.7143 
*END

*D_NET *706 0.000118217
*CONN
*I *1789:A3 I *D AND4_X1
*I *1787:ZN O *D OAI21_X1
*CAP
1 *1789:A3 5.11313e-05
2 *1787:ZN 5.11313e-05
3 *1789:A3 *1790:A1 0
4 *1789:A1 *1789:A3 1.35573e-05
5 *1789:A2 *1789:A3 2.39679e-06
*RES
1 *1787:ZN *1789:A3 15.3571 
*END

*D_NET *707 0.000254316
*CONN
*I *1789:A4 I *D AND4_X1
*I *1788:ZN O *D AOI22_X1
*CAP
1 *1789:A4 5.51147e-05
2 *1788:ZN 5.51147e-05
3 *1789:A4 *1745:B 0
4 *1789:A4 *1790:A1 9.27349e-05
5 *1788:B1 *1789:A4 2.20333e-05
6 *1789:A1 *1789:A4 2.56243e-06
7 *1789:A2 *1789:A4 2.67562e-05
*RES
1 *1788:ZN *1789:A4 28.25 
*END

*D_NET *708 0.000303409
*CONN
*I *1793:C1 I *D OAI211_X1
*I *1789:ZN O *D AND4_X1
*CAP
1 *1793:C1 0.000145757
2 *1789:ZN 0.000145757
3 *1793:C1 *1743:A 1.02088e-05
4 *1793:C1 *1793:C2 8.43215e-07
5 *1793:B *1793:C1 8.43215e-07
*RES
1 *1789:ZN *1793:C1 24.6786 
*END

*D_NET *709 0.000497834
*CONN
*I *1791:A2 I *D NOR2_X1
*I *1790:ZN O *D NOR3_X1
*CAP
1 *1791:A2 0.000236015
2 *1790:ZN 0.000236015
3 *1791:A2 *1748:A1 0
4 *1791:A2 *1792:B 1.81271e-06
5 *1791:A2 *1297:18 1.74934e-05
6 *1791:A1 *1791:A2 2.87703e-06
7 *1792:A *1791:A2 1.53691e-06
8 *1792:C1 *1791:A2 2.08416e-06
*RES
1 *1790:ZN *1791:A2 34.0714 
*END

*D_NET *710 0.000130053
*CONN
*I *1792:B I *D OAI211_X1
*I *1791:ZN O *D NOR2_X1
*CAP
1 *1792:B 3.71789e-05
2 *1791:ZN 3.71789e-05
3 *1791:A1 *1792:B 3.58513e-05
4 *1791:A2 *1792:B 1.81271e-06
5 *1792:A *1792:B 1.8031e-05
*RES
1 *1791:ZN *1792:B 14.8571 
*END

*D_NET *711 0.000440829
*CONN
*I *1793:C2 I *D OAI211_X1
*I *1792:ZN O *D OAI211_X1
*CAP
1 *1793:C2 8.16392e-05
2 *1792:ZN 8.16392e-05
3 *1749:B1 *1793:C2 1.90574e-06
4 *1749:B2 *1793:C2 9.91569e-06
5 *1792:A *1793:C2 3.3371e-05
6 *1792:C1 *1793:C2 1.72405e-05
7 *1793:A *1793:C2 0.000171595
8 *1793:C1 *1793:C2 8.43215e-07
9 *662:12 *1793:C2 2.39732e-05
10 *667:8 *1793:C2 1.87059e-05
*RES
1 *1792:ZN *1793:C2 34.5714 
*END

*D_NET *712 0.000485882
*CONN
*I *1796:B1 I *D AOI21_X1
*I *1793:ZN O *D OAI211_X1
*CAP
1 *1796:B1 0.000193995
2 *1793:ZN 0.000193995
3 *1796:B1 *1743:A 0
4 *1796:B1 *1795:A2 0
5 *1796:B1 *1796:B2 5.59765e-05
6 *1796:B1 *715:10 1.11168e-06
7 *1740:B2 *1796:B1 7.72537e-06
8 *1752:A *1796:B1 0
9 *1793:A *1796:B1 2.99872e-05
10 *1796:A *1796:B1 3.09143e-06
11 *662:12 *1796:B1 0
*RES
1 *1793:ZN *1796:B1 41.3572 
*END

*D_NET *713 0.00020456
*CONN
*I *1795:A2 I *D NOR2_X1
*I *1794:ZN O *D XNOR2_X1
*CAP
1 *1795:A2 8.47509e-05
2 *1794:ZN 8.47509e-05
3 *1795:A2 *1733:A 0
4 *1795:A2 *1738:B2 2.66938e-05
5 *1795:A2 *1796:B2 0
6 *1795:A2 *715:10 7.14654e-06
7 *1740:B2 *1795:A2 0
8 *1795:A1 *1795:A2 1.21774e-06
9 *1796:B1 *1795:A2 0
*RES
1 *1794:ZN *1795:A2 30.1071 
*END

*D_NET *714 9.12719e-05
*CONN
*I *1796:B2 I *D AOI21_X1
*I *1795:ZN O *D NOR2_X1
*CAP
1 *1796:B2 1.76477e-05
2 *1795:ZN 1.76477e-05
3 *1795:A2 *1796:B2 0
4 *1796:B1 *1796:B2 5.59765e-05
*RES
1 *1795:ZN *1796:B2 22.9643 
*END

*D_NET *715 0.000662904
*CONN
*I *1810:A1 I *D NOR4_X1
*I *1796:ZN O *D AOI21_X1
*CAP
1 *1810:A1 1.62376e-05
2 *1796:ZN 0.000306036
3 *715:10 0.000322273
4 *1810:A1 *1810:A3 7.16188e-07
5 *1810:A1 *1810:A4 2.87703e-06
6 *715:10 *1810:A2 6.50581e-06
7 *715:10 *1821:B 0
8 *1795:A2 *715:10 7.14654e-06
9 *1796:B1 *715:10 1.11168e-06
*RES
1 *1796:ZN *715:10 48.5 
2 *715:10 *1810:A1 6.75 
*END

*D_NET *716 0.000226774
*CONN
*I *1813:A2 I *D NOR2_X1
*I *1798:B I *D XNOR2_X1
*I *1797:ZN O *D XNOR2_X1
*CAP
1 *1813:A2 1.12632e-05
2 *1798:B 5.06651e-05
3 *1797:ZN 4.36795e-05
4 *716:8 0.000105608
5 *1798:B *1797:B 0
6 *1798:B *1812:A 1.55581e-05
7 *1813:A2 *1813:A1 0
8 *716:8 *1812:A 0
9 *716:8 *1813:A1 0
10 *716:8 *1814:B1 0
*RES
1 *1797:ZN *716:8 9.17857 
2 *716:8 *1798:B 20.6786 
3 *716:8 *1813:A2 6.25 
*END

*D_NET *717 0.000362626
*CONN
*I *1802:B1 I *D OAI21_X1
*I *1799:A2 I *D AND2_X1
*I *1798:ZN O *D XNOR2_X1
*CAP
1 *1802:B1 0
2 *1799:A2 1.36424e-05
3 *1798:ZN 0.000100544
4 *717:8 0.000114186
5 *1799:A2 *1799:A1 5.54348e-05
6 *1799:A2 *718:8 6.97608e-05
7 *717:8 *1802:A 1.21774e-06
8 *717:8 *1803:A2 1.76665e-06
9 *717:8 *1814:B1 0
10 *717:8 *722:10 6.07323e-06
*RES
1 *1798:ZN *717:8 15.1786 
2 *717:8 *1799:A2 18.6429 
3 *717:8 *1802:B1 5 
*END

*D_NET *718 0.000469237
*CONN
*I *1803:A1 I *D OR2_X1
*I *1814:B2 I *D OAI21_X1
*I *1799:ZN O *D AND2_X1
*CAP
1 *1803:A1 8.40651e-06
2 *1814:B2 3.55639e-05
3 *1799:ZN 6.79668e-05
4 *718:8 0.000111937
5 *1803:A1 *1803:A2 2.39679e-06
6 *1803:A1 *1814:A 2.16072e-07
7 *1814:B2 *1802:B2 8.08846e-05
8 *1814:B2 *1814:B1 2.52965e-06
9 *1814:B2 *1822:C1 0
10 *1814:B2 *722:10 0
11 *718:8 *1799:A1 7.35912e-06
12 *718:8 *1802:B2 8.22158e-05
13 *718:8 *722:10 0
14 *1799:A2 *718:8 6.97608e-05
*RES
1 *1799:ZN *718:8 20.4286 
2 *718:8 *1814:B2 15.0714 
3 *718:8 *1803:A1 10.75 
*END

*D_NET *719 0.000287044
*CONN
*I *1801:B I *D XOR2_X1
*I *1811:A2 I *D NAND2_X1
*I *1800:ZN O *D XNOR2_X1
*CAP
1 *1801:B 4.7812e-05
2 *1811:A2 1.69549e-05
3 *1800:ZN 5.34081e-05
4 *719:12 0.000118175
5 *1801:B *1801:A 7.72537e-06
6 *1801:B *1811:A1 1.61988e-05
7 *1811:A2 *1728:A 0
8 *1811:A2 *1801:A 0
9 *719:12 *1728:A 0
10 *719:12 *1801:A 2.67697e-05
*RES
1 *1800:ZN *719:12 21.3929 
2 *719:12 *1811:A2 6.75 
3 *719:12 *1801:B 20.75 
*END

*D_NET *720 0.000583557
*CONN
*I *1802:A I *D OAI21_X1
*I *1814:A I *D OAI21_X1
*I *1801:Z O *D XOR2_X1
*CAP
1 *1802:A 0.000132908
2 *1814:A 5.11423e-05
3 *1801:Z 8.71533e-05
4 *720:6 0.000271203
5 *1802:A *1705:A 1.92536e-05
6 *1802:A *1799:A1 6.48216e-07
7 *1802:A *1803:A2 0
8 *1814:A *1803:A2 9.62051e-07
9 *1814:A *1814:B1 2.39679e-06
10 *1814:A *1822:A 0
11 *1814:A *1822:B 1.64551e-05
12 *720:6 *1822:A 0
13 *1803:A1 *1814:A 2.16072e-07
14 *717:8 *1802:A 1.21774e-06
*RES
1 *1801:Z *720:6 13.75 
2 *720:6 *1814:A 10.75 
3 *720:6 *1802:A 29.6429 
*END

*D_NET *721 0.000111234
*CONN
*I *1803:A2 I *D OR2_X1
*I *1802:ZN O *D OAI21_X1
*CAP
1 *1803:A2 5.30545e-05
2 *1802:ZN 5.30545e-05
3 *1802:A *1803:A2 0
4 *1803:A1 *1803:A2 2.39679e-06
5 *1814:A *1803:A2 9.62051e-07
6 *717:8 *1803:A2 1.76665e-06
*RES
1 *1802:ZN *1803:A2 15.5714 
*END

*D_NET *722 0.00070169
*CONN
*I *1822:C2 I *D OAI211_X1
*I *1810:A2 I *D NOR4_X1
*I *1803:ZN O *D OR2_X1
*CAP
1 *1822:C2 9.73999e-05
2 *1810:A2 7.59948e-05
3 *1803:ZN 0.000159089
4 *722:10 0.000332484
5 *1810:A2 *1822:C1 0
6 *1822:C2 *1802:B2 0
7 *1822:C2 *1822:C1 2.41425e-05
8 *722:10 *1814:B1 0
9 *722:10 *1822:C1 0
10 *1814:B2 *722:10 0
11 *715:10 *1810:A2 6.50581e-06
12 *717:8 *722:10 6.07323e-06
13 *718:8 *722:10 0
*RES
1 *1803:ZN *722:10 26.8929 
2 *722:10 *1810:A2 18.3929 
3 *722:10 *1822:C2 20.25 
*END

*D_NET *723 0.000310785
*CONN
*I *1805:B I *D XNOR2_X1
*I *1816:A2 I *D NOR2_X1
*I *1804:ZN O *D XNOR2_X1
*CAP
1 *1805:B 0
2 *1816:A2 5.40306e-05
3 *1804:ZN 7.91958e-05
4 *723:8 0.000133226
5 *1816:A2 *1816:A1 1.61523e-05
6 *723:8 *1688:A 9.14865e-06
7 *723:8 *1804:A 1.90317e-05
8 *1740:C2 *1816:A2 0
*RES
1 *1804:ZN *723:8 14.1786 
2 *723:8 *1816:A2 11.25 
3 *723:8 *1805:B 5 
*END

*D_NET *724 0.000472372
*CONN
*I *1806:B I *D XNOR2_X1
*I *1821:C1 I *D AOI211_X1
*I *1805:ZN O *D XNOR2_X1
*CAP
1 *1806:B 8.72764e-05
2 *1821:C1 3.44088e-05
3 *1805:ZN 3.25969e-05
4 *724:8 0.000154282
5 *1806:B *1806:A 1.8031e-05
6 *1806:B *1821:A 2.51997e-05
7 *1806:B *1821:B 1.26998e-05
8 *1806:B *1823:A2 0
9 *1821:C1 *1804:A 0
10 *1821:C1 *1805:A 0
11 *1821:C1 *1821:A 1.34578e-05
12 *724:8 *1804:A 0
13 *724:8 *1821:A 9.44188e-05
*RES
1 *1805:ZN *724:8 15 
2 *724:8 *1821:C1 13.75 
3 *724:8 *1806:B 19.75 
*END

*D_NET *725 0.000323084
*CONN
*I *1810:A3 I *D NOR4_X1
*I *1820:A1 I *D NOR2_X1
*I *1806:ZN O *D XNOR2_X1
*CAP
1 *1810:A3 3.05664e-05
2 *1820:A1 6.08019e-05
3 *1806:ZN 8.71307e-06
4 *725:6 0.000100081
5 *1810:A3 *1810:A4 2.75346e-06
6 *1810:A3 *1823:A2 3.41146e-05
7 *1820:A1 *1810:A4 4.55484e-05
8 *1820:A1 *1820:A2 2.75346e-06
9 *1820:A1 *1821:B 3.70348e-05
10 *725:6 *1823:A2 0
11 *1810:A1 *1810:A3 7.16188e-07
*RES
1 *1806:ZN *725:6 5.92857 
2 *725:6 *1820:A1 14.6786 
3 *725:6 *1810:A3 10.8571 
*END

*D_NET *726 0.000442966
*CONN
*I *1818:A2 I *D NOR2_X1
*I *1808:B I *D XNOR2_X1
*I *1807:ZN O *D XNOR2_X1
*CAP
1 *1818:A2 4.1648e-05
2 *1808:B 1.80154e-05
3 *1807:ZN 0.00010589
4 *726:12 0.000165554
5 *1808:B *1809:A 3.65322e-06
6 *1808:B *1809:B 0
7 *1808:B *1819:A 0
8 *1818:A2 *1817:A 0
9 *726:12 *1735:B 0.000108205
10 *726:12 *1817:A 0
11 *726:12 *2195:B 0
*RES
1 *1807:ZN *726:12 23.0357 
2 *726:12 *1808:B 12.4643 
3 *726:12 *1818:A2 15.0357 
*END

*D_NET *727 0.00029204
*CONN
*I *1819:B1 I *D AOI21_X1
*I *1809:B I *D XNOR2_X1
*I *1808:ZN O *D XNOR2_X1
*CAP
1 *1819:B1 0
2 *1809:B 5.92323e-05
3 *1808:ZN 4.25857e-05
4 *727:8 0.000101818
5 *1809:B *1820:A2 4.53122e-05
6 *727:8 *1808:A 3.46977e-06
7 *727:8 *1809:A 3.96215e-05
8 *727:8 *1819:A 0
9 *1808:B *1809:B 0
*RES
1 *1808:ZN *727:8 10.3571 
2 *727:8 *1809:B 22 
3 *727:8 *1819:B1 5 
*END

*D_NET *728 0.000222052
*CONN
*I *1810:A4 I *D NOR4_X1
*I *1809:ZN O *D XNOR2_X1
*CAP
1 *1810:A4 8.12642e-05
2 *1809:ZN 8.12642e-05
3 *1810:A4 *1812:A 0
4 *1810:A4 *1820:A2 8.34424e-06
5 *1810:A1 *1810:A4 2.87703e-06
6 *1810:A3 *1810:A4 2.75346e-06
7 *1820:A1 *1810:A4 4.55484e-05
*RES
1 *1809:ZN *1810:A4 19.9286 
*END

*D_NET *729 0.00052317
*CONN
*I *1823:A2 I *D NOR3_X1
*I *1810:ZN O *D NOR4_X1
*CAP
1 *1823:A2 0.000196912
2 *1810:ZN 0.000196912
3 *1823:A2 *1800:A 0
4 *1823:A2 *1802:B2 0
5 *1823:A2 *1821:B 0
6 *1823:A2 *1823:A3 9.24779e-05
7 *1806:B *1823:A2 0
8 *1810:A3 *1823:A2 3.41146e-05
9 *1823:A1 *1823:A2 2.75346e-06
10 *725:6 *1823:A2 0
*RES
1 *1810:ZN *1823:A2 32.7143 
*END

*D_NET *730 0.000215714
*CONN
*I *1822:A I *D OAI211_X1
*I *1811:ZN O *D NAND2_X1
*CAP
1 *1822:A 0.00010648
2 *1811:ZN 0.00010648
3 *1822:A *1822:B 0
4 *1822:A *1822:C1 2.75346e-06
5 *1814:A *1822:A 0
6 *720:6 *1822:A 0
*RES
1 *1811:ZN *1822:A 20.9286 
*END

*D_NET *731 0.000172181
*CONN
*I *1813:A1 I *D NOR2_X1
*I *1812:ZN O *D INV_X1
*CAP
1 *1813:A1 6.26181e-05
2 *1812:ZN 6.26181e-05
3 *1813:A1 *1798:A 3.44527e-05
4 *1813:A1 *1812:A 1.24924e-05
5 *1813:A2 *1813:A1 0
6 *716:8 *1813:A1 0
*RES
1 *1812:ZN *1813:A1 17.6429 
*END

*D_NET *732 0.00020552
*CONN
*I *1814:B1 I *D OAI21_X1
*I *1813:ZN O *D NOR2_X1
*CAP
1 *1814:B1 0.000100297
2 *1813:ZN 0.000100297
3 *1814:B1 *1822:C1 0
4 *1814:A *1814:B1 2.39679e-06
5 *1814:B2 *1814:B1 2.52965e-06
6 *716:8 *1814:B1 0
7 *717:8 *1814:B1 0
8 *722:10 *1814:B1 0
*RES
1 *1813:ZN *1814:B1 19.9286 
*END

*D_NET *733 0.000173787
*CONN
*I *1822:B I *D OAI211_X1
*I *1814:ZN O *D OAI21_X1
*CAP
1 *1822:B 7.86658e-05
2 *1814:ZN 7.86658e-05
3 *1822:B *1822:C1 0
4 *1814:A *1822:B 1.64551e-05
5 *1822:A *1822:B 0
*RES
1 *1814:ZN *1822:B 18.75 
*END

*D_NET *734 0.000145467
*CONN
*I *1816:A1 I *D NOR2_X1
*I *1815:ZN O *D INV_X1
*CAP
1 *1816:A1 6.30568e-05
2 *1815:ZN 6.30568e-05
3 *1816:A1 *1804:A 0
4 *1816:A1 *1805:A 3.20076e-06
5 *1816:A1 *1821:C2 0
6 *1816:A2 *1816:A1 1.61523e-05
*RES
1 *1815:ZN *1816:A1 17.1429 
*END

*D_NET *735 0.000399534
*CONN
*I *1821:A I *D AOI211_X1
*I *1816:ZN O *D NOR2_X1
*CAP
1 *1821:A 0.000114963
2 *1816:ZN 0.000114963
3 *1821:A *1804:A 0
4 *1821:A *1805:A 1.65458e-05
5 *1821:A *1806:A 9.62051e-07
6 *1821:A *1815:A 1.16685e-05
7 *1821:A *1821:B 8.72084e-07
8 *1821:A *1821:C2 6.48231e-06
9 *1821:A *1822:C1 0
10 *1806:B *1821:A 2.51997e-05
11 *1821:C1 *1821:A 1.34578e-05
12 *724:8 *1821:A 9.44188e-05
*RES
1 *1816:ZN *1821:A 35.7143 
*END

*D_NET *736 0.000111037
*CONN
*I *1818:A1 I *D NOR2_X1
*I *1817:ZN O *D INV_X1
*CAP
1 *1818:A1 5.19223e-05
2 *1817:ZN 5.19223e-05
3 *1818:A1 *1807:B 7.19234e-06
4 *1818:A1 *1808:A 0
5 *1818:A1 *1809:A 0
*RES
1 *1817:ZN *1818:A1 15.5357 
*END

*D_NET *737 0.000190498
*CONN
*I *1819:A I *D AOI21_X1
*I *1818:ZN O *D NOR2_X1
*CAP
1 *1819:A 9.52489e-05
2 *1818:ZN 9.52489e-05
3 *1819:A *1808:A 0
4 *1819:A *1809:A 0
5 *1808:B *1819:A 0
6 *727:8 *1819:A 0
*RES
1 *1818:ZN *1819:A 19.75 
*END

*D_NET *738 0.000271245
*CONN
*I *1820:A2 I *D NOR2_X1
*I *1819:ZN O *D AOI21_X1
*CAP
1 *1820:A2 7.57915e-05
2 *1819:ZN 7.57915e-05
3 *1820:A2 *1806:A 9.3409e-06
4 *1820:A2 *1809:A 4.06765e-05
5 *1820:A2 *1821:B 1.32348e-05
6 *1809:B *1820:A2 4.53122e-05
7 *1810:A4 *1820:A2 8.34424e-06
8 *1820:A1 *1820:A2 2.75346e-06
*RES
1 *1819:ZN *1820:A2 21.1071 
*END

*D_NET *739 0.000418131
*CONN
*I *1821:B I *D AOI211_X1
*I *1820:ZN O *D NOR2_X1
*CAP
1 *1821:B 0.000137555
2 *1820:ZN 0.000137555
3 *1821:B *1806:A 4.4154e-05
4 *1821:B *1822:C1 3.50256e-05
5 *1806:B *1821:B 1.26998e-05
6 *1820:A1 *1821:B 3.70348e-05
7 *1820:A2 *1821:B 1.32348e-05
8 *1821:A *1821:B 8.72084e-07
9 *1823:A2 *1821:B 0
10 *715:10 *1821:B 0
*RES
1 *1820:ZN *1821:B 47.8572 
*END

*D_NET *740 0.000527744
*CONN
*I *1822:C1 I *D OAI211_X1
*I *1821:ZN O *D AOI211_X1
*CAP
1 *1822:C1 0.000212349
2 *1821:ZN 0.000212349
3 *1822:C1 *1802:B2 4.1124e-05
4 *1810:A2 *1822:C1 0
5 *1814:B1 *1822:C1 0
6 *1814:B2 *1822:C1 0
7 *1821:A *1822:C1 0
8 *1821:B *1822:C1 3.50256e-05
9 *1822:A *1822:C1 2.75346e-06
10 *1822:B *1822:C1 0
11 *1822:C2 *1822:C1 2.41425e-05
12 *722:10 *1822:C1 0
*RES
1 *1821:ZN *1822:C1 45 
*END

*D_NET *741 0.00046033
*CONN
*I *1823:A3 I *D NOR3_X1
*I *1822:ZN O *D OAI211_X1
*CAP
1 *1823:A3 0.000183926
2 *1822:ZN 0.000183926
3 *1823:A2 *1823:A3 9.24779e-05
*RES
1 *1822:ZN *1823:A3 41.2143 
*END

*D_NET *742 0.00129734
*CONN
*I *1829:A2 I *D NOR3_X1
*I *1823:ZN O *D NOR3_X1
*CAP
1 *1829:A2 4.03801e-05
2 *1823:ZN 1.26947e-05
3 *742:12 0.000533417
4 *742:10 0.000505732
5 *1829:A2 *1829:A3 0.000120408
6 *742:10 *1801:A 0
7 *742:10 *1804:B 2.99872e-05
8 *742:12 *1700:A 0
9 *742:12 *1704:A 0
10 *742:12 *1800:A 0
11 *742:12 *1828:A3 8.43215e-07
12 *1701:A2 *742:12 0
13 *1723:B1 *742:12 0
14 *1729:A2 *742:12 1.47899e-05
15 *1823:A1 *742:12 3.90891e-05
16 *1829:A1 *742:12 0
17 *618:12 *742:12 0
*RES
1 *1823:ZN *742:10 16.6071 
2 *742:10 *742:12 49.25 
3 *742:12 *1829:A2 21.3571 
*END

*D_NET *743 0.000111002
*CONN
*I *1828:A2 I *D NAND4_X1
*I *1824:ZN O *D NAND2_X1
*CAP
1 *1828:A2 4.75531e-05
2 *1824:ZN 4.75531e-05
3 *1828:A2 *1828:A4 1.5896e-05
*RES
1 *1824:ZN *1828:A2 15.3571 
*END

*D_NET *744 0.000479969
*CONN
*I *1828:A3 I *D NAND4_X1
*I *1825:ZN O *D NAND2_X1
*CAP
1 *1828:A3 0.000178693
2 *1825:ZN 0.000178693
3 *1828:A3 *1827:A2 0
4 *1828:A3 *1828:A4 0
5 *1828:A3 *1829:A3 0.000121739
6 *1828:A3 *748:10 0
7 *1827:A1 *1828:A3 0
8 *742:12 *1828:A3 8.43215e-07
*RES
1 *1825:ZN *1828:A3 40.1072 
*END

*D_NET *745 0.000167981
*CONN
*I *1827:A2 I *D NOR2_X1
*I *1826:ZN O *D NOR2_X1
*CAP
1 *1827:A2 8.33817e-05
2 *1826:ZN 8.33817e-05
3 *1827:A2 *1717:A 0
4 *1827:A2 *1824:A1 0
5 *1718:C1 *1827:A2 0
6 *1827:A1 *1827:A2 1.21774e-06
7 *1828:A3 *1827:A2 0
*RES
1 *1826:ZN *1827:A2 18.25 
*END

*D_NET *746 8.19046e-05
*CONN
*I *1828:A4 I *D NAND4_X1
*I *1827:ZN O *D NOR2_X1
*CAP
1 *1828:A4 3.30043e-05
2 *1827:ZN 3.30043e-05
3 *1828:A2 *1828:A4 1.5896e-05
4 *1828:A3 *1828:A4 0
*RES
1 *1827:ZN *1828:A4 13.75 
*END

*D_NET *747 0.00047386
*CONN
*I *1829:A3 I *D NOR3_X1
*I *1828:ZN O *D NAND4_X1
*CAP
1 *1829:A3 0.000104771
2 *1828:ZN 0.000104771
3 *1724:A *1829:A3 1.91498e-06
4 *1828:A3 *1829:A3 0.000121739
5 *1829:A1 *1829:A3 3.09411e-06
6 *1829:A2 *1829:A3 0.000120408
7 *641:12 *1829:A3 1.71609e-05
*RES
1 *1828:ZN *1829:A3 36.6072 
*END

*D_NET *748 0.000798384
*CONN
*I *1830:A2 I *D NOR2_X1
*I *1829:ZN O *D NOR3_X1
*CAP
1 *1830:A2 0
2 *1829:ZN 0.000344461
3 *748:10 0.000344461
4 *748:10 *1645:A 0
5 *748:10 *1645:B 4.21054e-05
6 *748:10 *1647:A 0
7 *748:10 *1676:B 6.73568e-05
8 *748:10 *1718:B2 0
9 *748:10 *1825:A1 0
10 *1724:A *748:10 0
11 *1825:A2 *748:10 0
12 *1828:A3 *748:10 0
*RES
1 *1829:ZN *748:10 49.1786 
2 *748:10 *1830:A2 10 
*END

*D_NET *749 0.000337348
*CONN
*I *1831:A2 I *D NOR2_X1
*I *1830:ZN O *D NOR2_X1
*CAP
1 *1831:A2 0.000168065
2 *1830:ZN 0.000168065
3 *1831:A1 *1831:A2 1.21774e-06
4 *595:10 *1831:A2 0
*RES
1 *1830:ZN *1831:A2 25.1786 
*END

*D_NET *750 0.000267431
*CONN
*I *1832:A2 I *D NOR2_X1
*I *1831:ZN O *D NOR2_X1
*CAP
1 *1832:A2 0.000109521
2 *1831:ZN 0.000109521
3 *1832:A2 *1619:A1 2.47684e-05
4 *1832:A2 *1648:A1 0
5 *1619:A2 *1832:A2 0
6 *1831:A1 *1832:A2 2.27771e-05
7 *1832:A1 *1832:A2 8.43215e-07
*RES
1 *1831:ZN *1832:A2 32.7143 
*END

*D_NET *751 0.00594352
*CONN
*I *1918:B2 I *D AOI21_X1
*I *1847:B1 I *D OAI21_X1
*I *1875:B2 I *D AOI21_X1
*I *1924:B2 I *D OAI21_X1
*I *1839:B2 I *D OAI21_X1
*I *1833:B I *D XNOR2_X1
*I *1910:S I *D MUX2_X1
*I *1914:B1 I *D OAI21_X1
*I *1832:ZN O *D NOR2_X1
*CAP
1 *1918:B2 4.55407e-06
2 *1847:B1 2.39664e-05
3 *1875:B2 8.73496e-05
4 *1924:B2 0
5 *1839:B2 0.000128747
6 *1833:B 3.24061e-05
7 *1910:S 0.000114592
8 *1914:B1 3.53665e-06
9 *1832:ZN 0
10 *751:97 0.000134696
11 *751:71 0.000373219
12 *751:44 0.000395444
13 *751:42 0.000224809
14 *751:14 0.000135651
15 *751:10 0.000136442
16 *751:8 0.000892055
17 *751:6 0.000851444
18 *1833:B *1835:C1 2.60259e-05
19 *1839:B2 *1837:A1 0.000275306
20 *1839:B2 *1837:B2 7.98408e-05
21 *1839:B2 *1839:A 3.23634e-05
22 *1839:B2 *2172:A 0
23 *1839:B2 *2751:A 7.19036e-06
24 *1839:B2 *1102:89 0
25 *1847:B1 *1847:B2 1.21774e-06
26 *1847:B1 *1875:A 2.26306e-06
27 *1875:B2 *1875:A 1.6935e-05
28 *1910:S *1910:A 1.77822e-05
29 *1910:S *1919:C1 0
30 *1918:B2 *762:39 3.19164e-07
31 *751:8 *1617:A 0.000157719
32 *751:8 *1617:B 4.69508e-06
33 *751:8 *1618:A 5.39662e-05
34 *751:8 *1619:A1 8.19658e-05
35 *751:8 *1623:A 0.000107268
36 *751:8 *1664:A1 0
37 *751:8 *1855:A 0
38 *751:8 *1855:B 0
39 *751:8 *1868:B2 0
40 *751:8 *1869:A 0
41 *751:8 *1869:B2 0
42 *751:8 *1916:B 0
43 *751:8 *766:223 0
44 *751:8 *780:8 0
45 *751:10 *1869:A 0
46 *751:42 *1875:A 0
47 *751:42 *762:39 0
48 *751:44 *1833:A 2.90169e-05
49 *751:44 *1835:C1 8.20715e-06
50 *751:71 *1834:A 5.9479e-07
51 *751:71 *1837:A1 0.000142443
52 *751:71 *1847:B2 0
53 *751:71 *1877:C1 0.00012095
54 *751:71 *1882:A2 5.13749e-05
55 *751:71 *1922:A1 0
56 *751:71 *1923:A1 0.000112931
57 *751:71 *2172:A 0
58 *1619:A2 *751:8 1.46923e-05
59 *1671:A2 *751:8 0
60 *1835:B *1833:B 0
61 *1847:A *1847:B1 5.54348e-05
62 *1847:A *1875:B2 2.52965e-06
63 *1847:A *1914:B1 2.75346e-06
64 *1847:A *751:42 7.82019e-05
65 *1847:A *751:97 1.04632e-05
66 *1875:B1 *1875:B2 1.21774e-06
67 *1909:B *1910:S 4.24381e-05
68 *1910:B *1910:S 0.000210105
69 *1918:A *751:8 7.4751e-06
70 *1918:A *751:10 1.09107e-05
71 *1918:A *751:14 5.56936e-06
72 *1918:B1 *1918:B2 1.21774e-06
73 *1918:B1 *751:8 0
74 *1918:B1 *751:42 0
75 *1922:A2 *1839:B2 6.0901e-05
76 *79:16 *1847:B1 3.09143e-06
77 *79:16 *1875:B2 3.7786e-05
78 *79:16 *1910:S 8.475e-05
79 *79:16 *1914:B1 8.26038e-06
80 *79:16 *751:97 4.04712e-06
81 *95:151 *751:71 8.167e-05
82 *95:162 *1833:B 2.83289e-05
83 *95:162 *751:71 2.88151e-05
84 *95:177 *1910:S 0.000121198
85 *98:84 *1910:S 9.67365e-05
86 *98:84 *1914:B1 4.97191e-06
87 *98:84 *751:42 7.72537e-06
88 *516:73 *1839:B2 4.43868e-06
89 *536:10 *751:8 9.05228e-06
90 *537:8 *751:8 2.94802e-06
91 *542:12 *751:8 4.64976e-05
*RES
1 *1832:ZN *751:6 10 
2 *751:6 *751:8 106.786 
3 *751:8 *751:10 3.64286 
4 *751:10 *751:14 6.60714 
5 *751:14 *1914:B1 5.75 
6 *751:14 *1910:S 38.0714 
7 *751:10 *751:42 20.0357 
8 *751:42 *751:44 15.3571 
9 *751:44 *1833:B 14.1786 
10 *751:44 *751:71 47.0714 
11 *751:71 *1839:B2 32.3572 
12 *751:71 *1924:B2 10 
13 *751:42 *751:97 7.75 
14 *751:97 *1875:B2 15.75 
15 *751:97 *1847:B1 19.3929 
16 *751:8 *1918:B2 10.75 
*END

*D_NET *752 0.0002843
*CONN
*I *1835:C1 I *D AOI211_X1
*I *1833:ZN O *D XNOR2_X1
*CAP
1 *1835:C1 8.43952e-05
2 *1833:ZN 8.43952e-05
3 *1835:C1 *1833:A 4.21902e-05
4 *1835:C1 *1835:C2 0
5 *1833:B *1835:C1 2.60259e-05
6 *1835:A *1835:C1 0
7 *1835:B *1835:C1 3.90865e-05
8 *751:44 *1835:C1 8.20715e-06
*RES
1 *1833:ZN *1835:C1 30.1071 
*END

*D_NET *753 0.000105596
*CONN
*I *1835:C2 I *D AOI211_X1
*I *1834:ZN O *D XNOR2_X1
*CAP
1 *1835:C2 5.18406e-05
2 *1834:ZN 5.18406e-05
3 *1835:C2 *1834:A 1.91498e-06
4 *1835:C2 *1421:14 0
5 *1835:C1 *1835:C2 0
6 *530:169 *1835:C2 0
*RES
1 *1834:ZN *1835:C2 25.5714 
*END

*D_NET *754 0.000656812
*CONN
*I *1836:A4 I *D NAND4_X1
*I *1835:ZN O *D AOI211_X1
*CAP
1 *1836:A4 0.000322416
2 *1835:ZN 0.000322416
3 *1836:A4 *2172:A 0
4 *1836:A4 *2905:A 0
5 *1836:A4 *755:10 9.74263e-06
6 *1593:A *1836:A4 0
7 *1594:A *1836:A4 0
8 *1612:A2 *1836:A4 0
9 *1836:A1 *1836:A4 2.23871e-06
10 *287:44 *1836:A4 0
11 *287:48 *1836:A4 0
12 *287:65 *1836:A4 0
*RES
1 *1835:ZN *1836:A4 40.6072 
*END

*D_NET *755 0.00184316
*CONN
*I *1925:A I *D AOI221_X1
*I *1927:B1 I *D AOI21_X1
*I *1841:A I *D AOI221_X1
*I *1843:B1 I *D AOI21_X1
*I *1836:ZN O *D NAND4_X1
*CAP
1 *1925:A 5.79e-06
2 *1927:B1 8.50651e-06
3 *1841:A 5.75155e-06
4 *1843:B1 6.9894e-05
5 *1836:ZN 9.57761e-05
6 *755:14 0.000114315
7 *755:12 6.84018e-05
8 *755:10 0.000122792
9 *1841:A *1841:B1 7.72537e-06
10 *1841:A *1841:C1 7.16188e-07
11 *1843:B1 *1843:B2 1.21774e-06
12 *1843:B1 *759:10 9.77674e-06
13 *1843:B1 *759:29 1.65484e-05
14 *1925:A *1925:B1 2.39679e-06
15 *1925:A *1925:B2 1.68643e-06
16 *755:10 *1594:B2 0.000263349
17 *755:10 *1841:C2 7.61366e-05
18 *755:12 *1841:C2 0.000113787
19 *755:14 *1841:C2 0.00023657
20 *755:14 *759:29 3.22858e-06
21 *1836:A1 *755:10 4.93896e-05
22 *1836:A4 *755:10 9.74263e-06
23 *1841:B2 *1843:B1 2.89018e-05
24 *1841:B2 *1925:A 4.79358e-06
25 *1841:B2 *755:10 1.66988e-05
26 *1841:B2 *755:12 0.000119869
27 *1841:B2 *755:14 0.000250605
28 *1927:A *1927:B1 2.39679e-06
29 *511:167 *1925:A 2.39679e-06
30 *511:167 *755:10 8.52479e-05
31 *516:37 *1843:B1 4.87536e-05
32 *530:6 *1843:B1 0
*RES
1 *1836:ZN *755:10 30.6072 
2 *755:10 *755:12 6.35715 
3 *755:12 *755:14 13.1429 
4 *755:14 *1843:B1 18.8929 
5 *755:14 *1841:A 10.75 
6 *755:12 *1927:B1 10.75 
7 *755:10 *1925:A 10.75 
*END

*D_NET *756 0.000206251
*CONN
*I *1839:A I *D OAI21_X1
*I *1837:ZN O *D AOI22_X1
*CAP
1 *1839:A 2.24182e-05
2 *1837:ZN 2.24182e-05
3 *1839:A *1837:B2 4.32319e-05
4 *1839:A *1839:B1 2.39679e-06
5 *1839:A *2751:A 2.24822e-06
6 *1839:B2 *1839:A 3.23634e-05
7 *516:73 *1839:A 8.11741e-05
*RES
1 *1837:ZN *1839:A 25.0714 
*END

*D_NET *757 0.000273628
*CONN
*I *1839:B1 I *D OAI21_X1
*I *1838:ZN O *D NAND2_X1
*CAP
1 *1839:B1 9.74207e-05
2 *1838:ZN 9.74207e-05
3 *1839:B1 *2751:A 7.45824e-05
4 *1839:B1 *1420:83 1.80767e-06
5 *1839:A *1839:B1 2.39679e-06
*RES
1 *1838:ZN *1839:B1 20.7857 
*END

*D_NET *758 0.00030824
*CONN
*I *1841:B1 I *D AOI221_X1
*I *1839:ZN O *D OAI21_X1
*CAP
1 *1841:B1 0.000115227
2 *1839:ZN 0.000115227
3 *1841:B1 *2751:A 5.39612e-05
4 *1841:B1 *2904:A 3.58094e-06
5 *1841:B1 *1420:6 0
6 *1841:B1 *1420:83 0
7 *1841:A *1841:B1 7.72537e-06
8 *1841:B2 *1841:B1 1.25189e-05
*RES
1 *1839:ZN *1841:B1 23.75 
*END

*D_NET *759 0.00178592
*CONN
*I *1925:B1 I *D AOI221_X1
*I *1841:C1 I *D AOI221_X1
*I *2751:A I *D BUF_X2
*I *1840:ZN O *D NOR3_X1
*CAP
1 *1925:B1 7.84458e-05
2 *1841:C1 6.55923e-06
3 *2751:A 0.000255997
4 *1840:ZN 0.00010593
5 *759:29 0.000114793
6 *759:10 0.000391714
7 *1925:B1 *1841:C2 0.000313999
8 *1925:B1 *1925:B2 2.39679e-06
9 *2751:A *1838:A1 0
10 *2751:A *1420:83 0
11 *759:10 *1843:A 0
12 *759:29 *1841:C2 3.02351e-05
13 *759:29 *1843:A 0
14 *1837:B1 *2751:A 0
15 *1839:A *2751:A 2.24822e-06
16 *1839:B1 *2751:A 7.45824e-05
17 *1839:B2 *2751:A 7.19036e-06
18 *1841:A *1841:C1 7.16188e-07
19 *1841:B1 *2751:A 5.39612e-05
20 *1841:B2 *2751:A 1.30565e-05
21 *1843:B1 *759:10 9.77674e-06
22 *1843:B1 *759:29 1.65484e-05
23 *1925:A *1925:B1 2.39679e-06
24 *1927:A *1925:B1 9.52105e-05
25 *2237:D *1925:B1 4.62385e-05
26 *61:256 *1925:B1 0
27 *285:8 *759:10 0
28 *511:167 *1925:B1 1.68643e-06
29 *516:37 *2751:A 0.000159007
30 *755:14 *759:29 3.22858e-06
*RES
1 *1840:ZN *759:10 21.3571 
2 *759:10 *2751:A 43.1072 
3 *759:10 *759:29 4.32143 
4 *759:29 *1841:C1 10.75 
5 *759:29 *1925:B1 27.2857 
*END

*D_NET *760 0.000139112
*CONN
*I *1843:A I *D AOI21_X1
*I *1841:ZN O *D AOI221_X1
*CAP
1 *1843:A 6.46535e-05
2 *1841:ZN 6.46535e-05
3 *2237:D *1843:A 0
4 *95:131 *1843:A 3.13582e-06
5 *516:37 *1843:A 6.66886e-06
6 *759:10 *1843:A 0
7 *759:29 *1843:A 0
*RES
1 *1841:ZN *1843:A 26.7143 
*END

*D_NET *761 0.000136499
*CONN
*I *1843:B2 I *D AOI21_X1
*I *1842:ZN O *D INV_X1
*CAP
1 *1843:B2 5.27328e-05
2 *1842:ZN 5.27328e-05
3 *1843:B1 *1843:B2 1.21774e-06
4 *2238:D *1843:B2 2.79011e-05
5 *95:10 *1843:B2 0
6 *95:14 *1843:B2 0
7 *516:37 *1843:B2 1.91498e-06
8 *530:6 *1843:B2 0
*RES
1 *1842:ZN *1843:B2 16.0357 
*END

*D_NET *762 0.00315557
*CONN
*I *1882:A2 I *D NOR2_X1
*I *1879:B1 I *D AOI21_X1
*I *1921:B1 I *D AOI21_X1
*I *1913:B1 I *D AOI21_X1
*I *1911:A I *D AOI221_X1
*I *1919:A I *D AOI211_X1
*I *1877:A I *D AOI211_X1
*I *1844:ZN O *D OAI21_X1
*CAP
1 *1882:A2 0.000302615
2 *1879:B1 0
3 *1921:B1 4.37658e-05
4 *1913:B1 0.00011094
5 *1911:A 5.13555e-05
6 *1919:A 0
7 *1877:A 4.07596e-06
8 *1844:ZN 2.84373e-05
9 *762:50 0.00022084
10 *762:48 0.000143901
11 *762:39 0.000392947
12 *762:25 0.000438159
13 *762:10 0.000174462
14 *762:6 0.000414636
15 *1882:A2 *1833:A 2.30117e-05
16 *1882:A2 *1914:B2 0
17 *1911:A *1911:C2 5.13479e-05
18 *1921:B1 *1911:C2 1.52083e-06
19 *762:6 *1833:A 4.79202e-06
20 *762:10 *1877:C1 0.000196799
21 *762:25 *2236:CK 6.85774e-07
22 *762:39 *1875:A 0
23 *762:39 *2236:CK 1.5717e-05
24 *762:50 *1911:C2 5.79858e-05
25 *762:50 *1919:C1 0
26 *1615:B *1882:A2 0
27 *1847:A *762:39 0
28 *1877:B *1877:A 7.72792e-06
29 *1877:B *762:10 1.72426e-05
30 *1877:B *762:25 5.1189e-05
31 *1879:A *762:10 7.66675e-07
32 *1879:A *762:25 3.42974e-05
33 *1879:A *762:39 2.25089e-06
34 *1879:B2 *762:25 3.02351e-05
35 *1911:C1 *1911:A 2.83434e-06
36 *1911:C1 *1913:B1 0
37 *1913:A *1913:B1 2.37137e-05
38 *1918:A *762:39 1.32348e-05
39 *1918:B1 *762:39 9.62001e-06
40 *1918:B2 *762:39 3.19164e-07
41 *1919:B *762:39 2.60294e-05
42 *1919:B *762:48 2.75346e-06
43 *1919:C2 *762:48 3.83453e-06
44 *1919:C2 *762:50 5.56276e-06
45 *1921:A *1921:B1 1.26998e-05
46 *1921:A *762:39 1.32323e-05
47 *1921:A *762:48 2.42487e-05
48 *1921:B2 *1921:B1 1.14339e-05
49 *2107:A2 *762:10 0
50 *2107:A2 *762:25 0
51 *2236:D *762:39 3.07024e-05
52 *2236:RN *762:39 0
53 *79:16 *1877:A 7.72792e-06
54 *95:151 *1882:A2 8.98274e-07
55 *95:151 *762:6 7.19234e-06
56 *95:162 *1882:A2 2.51354e-05
57 *95:177 *1882:A2 0
58 *95:199 *762:10 0
59 *98:74 *1911:A 2.75346e-06
60 *98:84 *1911:A 4.71367e-05
61 *98:84 *762:39 0
62 *98:84 *762:48 0
63 *98:84 *762:50 1.1429e-05
64 *751:42 *762:39 0
65 *751:71 *1882:A2 5.13749e-05
*RES
1 *1844:ZN *762:6 8.25 
2 *762:6 *762:10 16.7857 
3 *762:10 *1877:A 10.75 
4 *762:10 *762:25 16.1786 
5 *762:25 *762:39 48.4643 
6 *762:39 *1919:A 5 
7 *762:39 *762:48 9.75 
8 *762:48 *762:50 8.39286 
9 *762:50 *1911:A 18.9643 
10 *762:50 *1913:B1 21.25 
11 *762:48 *1921:B1 15.5714 
12 *762:25 *1879:B1 5 
13 *762:6 *1882:A2 48.6429 
*END

*D_NET *763 0.00244296
*CONN
*I *2750:A I *D BUF_X2
*I *1885:B1 I *D AOI22_X1
*I *1900:B1 I *D AOI22_X1
*I *1906:B1 I *D AOI22_X1
*I *1903:B1 I *D AOI22_X1
*I *1845:ZN O *D NOR3_X1
*CAP
1 *2750:A 8.71307e-06
2 *1885:B1 5.12774e-06
3 *1900:B1 7.68564e-05
4 *1906:B1 3.96348e-05
5 *1903:B1 5.61532e-05
6 *1845:ZN 0.000325236
7 *763:33 0.000116491
8 *763:31 0.000162261
9 *763:16 0.00024971
10 *763:12 0.000370373
11 *1885:B1 *1255:13 1.68643e-06
12 *1885:B1 *1257:9 3.09411e-06
13 *1900:B1 *1900:B2 7.72792e-06
14 *1900:B1 *1254:11 7.72792e-06
15 *1903:B1 *1903:B2 7.72792e-06
16 *1903:B1 *1255:13 3.65322e-06
17 *1903:B1 *1258:180 5.67661e-05
18 *1906:B1 *1885:B2 9.28396e-05
19 *1906:B1 *1256:5 2.52965e-06
20 *763:12 *2131:A1 0
21 *763:12 *2156:A 4.2963e-06
22 *763:12 *1258:92 7.19036e-06
23 *763:12 *1258:94 0.000150408
24 *763:12 *1420:102 0
25 *763:16 *2225:CK 1.56073e-06
26 *763:16 *1258:180 7.66366e-05
27 *763:31 *1255:13 3.93465e-06
28 *763:31 *1257:9 8.43215e-07
29 *1885:A2 *763:31 4.32144e-07
30 *1886:B1 *1906:B1 0
31 *1886:B1 *763:31 3.35822e-05
32 *1903:A2 *763:31 0.000203517
33 *1904:B1 *763:16 0
34 *1906:A2 *1906:B1 5.48932e-05
35 *1907:A *1903:B1 0
36 *2131:B1 *763:12 5.69552e-06
37 *2132:A2 *763:12 0
38 *2225:RN *763:12 8.47982e-06
39 *2230:D *763:31 7.27186e-06
40 *97:21 *1900:B1 0.000172389
41 *97:23 *1900:B1 3.81944e-05
42 *97:23 *1906:B1 1.66988e-05
43 *204:24 *763:31 1.28987e-05
44 *204:28 *1903:B1 2.97556e-06
45 *204:28 *763:16 1.46687e-06
46 *204:76 *763:31 6.56007e-06
47 *204:93 *763:31 1.13125e-05
48 *204:108 *763:31 0
49 *287:10 *763:12 4.79202e-06
50 *287:25 *763:12 2.23871e-06
51 *529:16 *763:12 2.03835e-05
*RES
1 *1845:ZN *763:12 41.8572 
2 *763:12 *763:16 10 
3 *763:16 *1903:B1 17.7143 
4 *763:16 *763:31 29.25 
5 *763:31 *763:33 5 
6 *763:33 *1906:B1 16.4286 
7 *763:33 *1900:B1 21.8571 
8 *763:31 *1885:B1 5.75 
9 *763:12 *2750:A 5.92857 
*END

*D_NET *764 0.000374547
*CONN
*I *1908:A I *D XNOR2_X1
*I *2756:Z O *D LOGIC0_X1
*CAP
1 *1908:A 0.00015088
2 *2756:Z 0.00015088
3 *61:14 *1908:A 6.17757e-06
4 *61:24 *1908:A 6.661e-05
*RES
1 *2756:Z *1908:A 27.8571 
*END

*D_NET *765 0.000294273
*CONN
*I *1875:A I *D AOI21_X1
*I *1847:ZN O *D OAI21_X1
*CAP
1 *1875:A 0.000127487
2 *1847:ZN 0.000127487
3 *1875:A *2236:CK 0
4 *1847:A *1875:A 1.73483e-05
5 *1847:B1 *1875:A 2.26306e-06
6 *1875:B1 *1875:A 2.75346e-06
7 *1875:B2 *1875:A 1.6935e-05
8 *751:42 *1875:A 0
9 *762:39 *1875:A 0
*RES
1 *1847:ZN *1875:A 33.9286 
*END

*D_NET *766 0.0140744
*CONN
*I *2749:A I *D BUF_X4
*I *1855:S I *D MUX2_X1
*I *1865:S I *D MUX2_X1
*I *1863:S I *D MUX2_X1
*I *1857:S I *D MUX2_X1
*I *1849:S I *D MUX2_X1
*I *1852:S I *D MUX2_X1
*I *1993:S I *D MUX2_X1
*I *1995:S I *D MUX2_X1
*I *1990:S I *D MUX2_X1
*I *1988:S I *D MUX2_X1
*I *1985:S I *D MUX2_X1
*I *1980:S I *D MUX2_X1
*I *1972:S I *D MUX2_X1
*I *1983:S I *D MUX2_X1
*I *1978:S I *D MUX2_X1
*I *1970:S I *D MUX2_X1
*I *1965:S I *D MUX2_X1
*I *1963:S I *D MUX2_X1
*I *1848:ZN O *D XNOR2_X2
*CAP
1 *2749:A 2.14476e-05
2 *1855:S 9.40711e-05
3 *1865:S 9.68173e-05
4 *1863:S 0
5 *1857:S 0
6 *1849:S 0.000107376
7 *1852:S 6.28363e-06
8 *1993:S 0.000135023
9 *1995:S 0
10 *1990:S 1.88464e-05
11 *1988:S 0.000183643
12 *1985:S 1.91844e-05
13 *1980:S 3.19492e-05
14 *1972:S 1.08747e-05
15 *1983:S 0.000161728
16 *1978:S 0
17 *1970:S 0
18 *1965:S 3.00348e-05
19 *1963:S 0.000168469
20 *1848:ZN 2.14476e-05
21 *766:227 0.000137132
22 *766:223 0.000264025
23 *766:212 0.000847789
24 *766:182 0.000196109
25 *766:178 0.000800598
26 *766:176 0.000410757
27 *766:163 0.000800955
28 *766:146 0.00029037
29 *766:109 0.000267804
30 *766:105 0.000285755
31 *766:103 0.000619878
32 *766:65 0.000507285
33 *766:28 0.000664113
34 *766:26 0.000492556
35 *766:22 0.000372504
36 *766:20 0.000379475
37 *766:18 0.000509967
38 *766:12 0.000151566
39 *766:10 0.000251375
40 *766:4 0.000634127
41 *1849:S *1849:A 2.75346e-06
42 *1849:S *1850:A 1.40357e-05
43 *1849:S *1850:B 1.31814e-05
44 *1849:S *1853:A 8.08825e-05
45 *1849:S *768:12 0.00012041
46 *1852:S *1850:A 5.71509e-07
47 *1855:S *1855:A 0.000298087
48 *1855:S *1863:B 0
49 *1855:S *1864:B 0
50 *1865:S *1857:B 4.97191e-06
51 *1865:S *1863:A 5.63459e-05
52 *1865:S *1867:A 5.56848e-05
53 *1865:S *1868:A 0.00015623
54 *1865:S *782:8 0.000116704
55 *1865:S *1234:58 2.39679e-06
56 *1963:S *1965:A 3.09143e-06
57 *1965:S *1965:A 7.72537e-06
58 *1965:S *1969:A 5.96136e-06
59 *1972:S *1972:A 1.25189e-05
60 *1980:S *1980:A 2.75346e-06
61 *1980:S *1980:B 1.27666e-06
62 *1983:S *1978:B 9.62051e-07
63 *1983:S *1983:A 7.29164e-07
64 *1985:S *1985:A 2.75346e-06
65 *1985:S *1418:90 9.57492e-07
66 *1988:S *1988:A 2.75346e-06
67 *1988:S *1988:B 1.27666e-06
68 *1988:S *2237:CK 1.40615e-05
69 *1990:S *1985:B 0
70 *1990:S *1990:A 2.39679e-06
71 *1990:S *1990:B 1.28122e-06
72 *1993:S *1993:A 0
73 *1993:S *1993:B 0
74 *1993:S *1994:A 4.78905e-05
75 *1993:S *2105:B2 0
76 *766:10 *1541:A 3.7071e-05
77 *766:10 *1545:A2 0.00040313
78 *766:10 *1848:A 2.95062e-05
79 *766:10 *2039:B2 8.1183e-06
80 *766:10 *2252:CK 2.39721e-05
81 *766:10 *1419:10 2.01083e-05
82 *766:10 *1419:45 2.75744e-05
83 *766:10 *1419:58 3.49085e-06
84 *766:18 *1972:A 2.4881e-05
85 *766:18 *2075:A1 5.20238e-07
86 *766:18 *1247:8 8.63111e-06
87 *766:20 *1970:A 1.03918e-05
88 *766:20 *1970:B 0.000136958
89 *766:20 *1975:A1 0
90 *766:20 *2075:A1 5.64109e-06
91 *766:28 *1965:A 1.13064e-05
92 *766:28 *1971:A 0
93 *766:28 *2249:D 4.74353e-05
94 *766:65 *1979:A 5.06354e-05
95 *766:103 *1559:B2 0
96 *766:103 *1848:A 6.0887e-06
97 *766:103 *1995:A 2.4461e-05
98 *766:103 *2092:A1 9.57492e-07
99 *766:103 *2134:B2 0
100 *766:103 *1131:14 7.64751e-05
101 *766:103 *1419:10 1.29107e-05
102 *766:103 *1419:23 0
103 *766:105 *1990:B 7.90864e-05
104 *766:109 *1418:105 5.56165e-05
105 *766:146 *1995:A 3.21451e-05
106 *766:146 *2092:A1 0
107 *766:163 *1995:A 2.75346e-06
108 *766:163 *1995:B 6.89028e-05
109 *766:163 *2092:A1 1.04871e-05
110 *766:176 *1850:A 2.0802e-06
111 *766:176 *1854:A 1.80418e-05
112 *766:176 *1993:B 0
113 *766:176 *2105:B2 0
114 *766:212 *1862:B 3.06741e-05
115 *766:223 *1855:A 2.99872e-05
116 *766:223 *1857:B 1.78914e-05
117 *766:223 *1863:A 0
118 *766:223 *1864:A 8.43215e-07
119 *766:223 *1864:B 0
120 *766:227 *1857:B 5.41857e-05
121 *766:227 *1863:A 7.72792e-06
122 *1560:A1 *766:103 0
123 *1577:A *766:103 3.32842e-07
124 *1577:C2 *766:103 1.86809e-06
125 *1966:A1 *1963:S 0
126 *1979:B *766:65 0
127 *1994:B *1993:S 0
128 *1994:B *766:163 0
129 *1996:A1 *766:163 0
130 *1997:B *766:163 3.09411e-06
131 *2002:A *1849:S 2.06549e-05
132 *2002:A *1852:S 1.8525e-05
133 *2074:B2 *766:28 2.87844e-05
134 *2095:B1 *766:105 4.26218e-05
135 *2122:A *766:20 1.81045e-05
136 *2248:RN *766:18 1.91954e-06
137 *2249:RN *766:28 0
138 *61:38 *766:163 0
139 *61:79 *766:20 2.22852e-05
140 *95:14 *1988:S 0
141 *95:16 *1988:S 0
142 *95:28 *766:20 4.18985e-05
143 *95:71 *766:18 2.49497e-05
144 *95:71 *766:20 0.000326993
145 *95:267 *766:105 3.01758e-05
146 *95:267 *766:146 1.07364e-05
147 *95:267 *766:163 1.50328e-05
148 *131:8 *1963:S 0
149 *139:8 *766:20 6.73552e-05
150 *146:10 *766:65 0
151 *161:6 *766:163 0
152 *162:8 *766:163 3.2068e-05
153 *171:14 *1988:S 2.70312e-05
154 *173:12 *1988:S 6.2553e-05
155 *472:14 *766:103 0
156 *494:18 *766:103 0.000113079
157 *524:104 *766:10 9.96023e-05
158 *524:266 *766:105 0.000468871
159 *524:266 *766:146 2.57072e-05
160 *530:155 *766:105 8.33651e-05
161 *530:155 *766:109 5.04324e-05
162 *530:206 *766:176 3.36627e-05
163 *693:8 *1865:S 0
164 *693:8 *766:227 0
165 *751:8 *766:223 0
*RES
1 *1848:ZN *766:4 5 
2 *766:4 *766:10 47.1072 
3 *766:10 *766:12 5 
4 *766:12 *766:18 17.8571 
5 *766:18 *766:20 56.5715 
6 *766:20 *766:22 5 
7 *766:22 *766:26 2.67857 
8 *766:26 *766:28 49.25 
9 *766:28 *1963:S 21.6786 
10 *766:28 *1965:S 18.0357 
11 *766:26 *1970:S 5 
12 *766:22 *766:65 36.1072 
13 *766:65 *1978:S 5 
14 *766:65 *1983:S 21.1786 
15 *766:18 *1972:S 11.25 
16 *766:12 *1980:S 7.75 
17 *766:4 *766:103 48.9286 
18 *766:103 *766:105 38.25 
19 *766:105 *766:109 14.75 
20 *766:109 *1985:S 6.75 
21 *766:109 *1988:S 36.8929 
22 *766:105 *1990:S 11.75 
23 *766:103 *766:146 9.85714 
24 *766:146 *1995:S 5 
25 *766:146 *766:163 43.3572 
26 *766:163 *1993:S 25.5357 
27 *766:163 *766:176 45.1072 
28 *766:176 *766:178 5 
29 *766:178 *766:182 7.73 
30 *766:182 *1852:S 11 
31 *766:182 *1849:S 26.6071 
32 *766:178 *766:212 36.6686 
33 *766:212 *1857:S 5 
34 *766:212 *766:223 18.8929 
35 *766:223 *766:227 10.25 
36 *766:227 *1863:S 5 
37 *766:227 *1865:S 32.3572 
38 *766:223 *1855:S 25.8571 
39 *1848:ZN *2749:A 12.2857 
*END

*D_NET *767 0.000137461
*CONN
*I *1850:B I *D XOR2_X1
*I *1849:Z O *D MUX2_X1
*CAP
1 *1850:B 5.41416e-05
2 *1849:Z 5.41416e-05
3 *1850:B *1785:A 0
4 *1850:B *1849:A 3.88947e-06
5 *1850:B *1849:B 1.21072e-05
6 *1849:S *1850:B 1.31814e-05
*RES
1 *1849:Z *1850:B 27.0357 
*END

*D_NET *768 0.000585857
*CONN
*I *2001:A1 I *D AND2_X1
*I *1853:A I *D XOR2_X1
*I *1850:Z O *D XOR2_X1
*CAP
1 *2001:A1 0
2 *1853:A 4.57815e-05
3 *1850:Z 4.57327e-05
4 *768:12 9.15142e-05
5 *1853:A *1852:B 2.39679e-06
6 *1853:A *1853:B 1.18589e-06
7 *1853:A *2001:A2 0
8 *1853:A *771:10 3.83757e-05
9 *768:12 *1850:A 2.09547e-05
10 *768:12 *1852:B 0
11 *768:12 *2001:A2 2.39679e-06
12 *1849:S *1853:A 8.08825e-05
13 *1849:S *768:12 0.00012041
14 *2002:A *1853:A 8.22158e-05
15 *492:8 *1853:A 5.40099e-05
*RES
1 *1850:Z *768:12 22.6071 
2 *768:12 *1853:A 24.5714 
3 *768:12 *2001:A1 5 
*END

*D_NET *769 0.000694791
*CONN
*I *1869:B2 I *D OAI21_X2
*I *2755:Z O *D LOGIC0_X1
*CAP
1 *1869:B2 0.000104456
2 *2755:Z 0.000104456
3 *1869:B2 *1864:A 0.000185923
4 *1869:B2 *1868:B2 0.000289341
5 *1869:B2 *1908:B 1.62643e-06
6 *1869:B2 *785:14 6.2777e-06
7 *1869:B2 *785:16 2.71058e-06
8 *751:8 *1869:B2 0
*RES
1 *2755:Z *1869:B2 39.9286 
*END

*D_NET *770 0.000182526
*CONN
*I *2001:A2 I *D AND2_X1
*I *1853:B I *D XOR2_X1
*I *1852:Z O *D MUX2_X1
*CAP
1 *2001:A2 3.84866e-05
2 *1853:B 4.46294e-05
3 *1852:Z 0
4 *770:4 8.3116e-05
5 *1853:B *771:10 1.27114e-05
6 *2001:A2 *1850:A 0
7 *1853:A *1853:B 1.18589e-06
8 *1853:A *2001:A2 0
9 *768:12 *2001:A2 2.39679e-06
*RES
1 *1852:Z *770:4 5 
2 *770:4 *1853:B 9.67857 
3 *770:4 *2001:A2 9.21429 
*END

*D_NET *771 0.000485821
*CONN
*I *2002:B1 I *D AOI21_X1
*I *1854:B I *D XOR2_X1
*I *1853:Z O *D XOR2_X1
*CAP
1 *2002:B1 1.44139e-05
2 *1854:B 3.57876e-05
3 *1853:Z 9.30706e-05
4 *771:10 0.000143272
5 *2002:B1 *1242:14 0
6 *771:10 *1849:A 1.36089e-05
7 *1853:A *771:10 3.83757e-05
8 *1853:B *771:10 1.27114e-05
9 *2002:A *2002:B1 8.26038e-06
10 *2002:A *771:10 4.42655e-05
11 *169:8 *1854:B 6.92212e-05
12 *492:8 *771:10 9.74193e-06
13 *511:134 *1854:B 3.09143e-06
14 *511:134 *2002:B1 0
*RES
1 *1853:Z *771:10 22.7857 
2 *771:10 *1854:B 15.0714 
3 *771:10 *2002:B1 11.75 
*END

*D_NET *772 0.000890603
*CONN
*I *1872:A3 I *D OR3_X1
*I *1871:A I *D OAI21_X4
*I *1854:Z O *D XOR2_X1
*CAP
1 *1872:A3 0
2 *1871:A 3.56128e-05
3 *1854:Z 0.000142023
4 *772:10 0.000177636
5 *1871:A *1872:A2 2.25089e-06
6 *1871:A *2243:CK 4.8503e-05
7 *772:10 *2243:CK 0
8 *1872:A1 *1871:A 4.26368e-05
9 *2127:A *772:10 4.42508e-05
10 *61:227 *1871:A 4.16485e-05
11 *61:227 *772:10 6.92191e-05
12 *511:134 *772:10 0.000191614
13 *511:140 *1871:A 4.37715e-05
14 *511:140 *772:10 5.14369e-05
*RES
1 *1854:Z *772:10 32.3929 
2 *772:10 *1871:A 17.0357 
3 *772:10 *1872:A3 10 
*END

*D_NET *773 7.0285e-05
*CONN
*I *1856:B I *D XOR2_X2
*I *1855:Z O *D MUX2_X1
*CAP
1 *1856:B 3.51425e-05
2 *1855:Z 3.51425e-05
3 *1856:B *1617:A 0
4 *1856:B *1856:A 0
*RES
1 *1855:Z *1856:B 13.25 
*END

*D_NET *774 0.000598158
*CONN
*I *1858:A1 I *D NAND2_X1
*I *1859:A I *D XOR2_X2
*I *1856:Z O *D XOR2_X2
*CAP
1 *1858:A1 2.42237e-05
2 *1859:A 1.50861e-05
3 *1856:Z 0.000214705
4 *774:10 0.000254014
5 *1858:A1 *1858:A2 3.85541e-05
6 *1859:A *1860:A1 0
7 *1859:A *1862:B 1.045e-05
8 *774:10 *1758:A 0
9 *774:10 *1856:A 0
10 *774:10 *1860:A1 0
11 *774:10 *1862:B 2.57909e-05
12 *693:8 *1858:A1 1.53342e-05
*RES
1 *1856:Z *774:10 33.4643 
2 *774:10 *1859:A 11.6071 
3 *774:10 *1858:A1 13.75 
*END

*D_NET *775 0.000199269
*CONN
*I *1859:B I *D XOR2_X2
*I *1858:A2 I *D NAND2_X1
*I *1857:Z O *D MUX2_X1
*CAP
1 *1859:B 7.54016e-06
2 *1858:A2 4.84252e-05
3 *1857:Z 2.34583e-05
4 *775:6 7.94236e-05
5 *1858:A2 *1857:A 0
6 *1858:A1 *1858:A2 3.85541e-05
7 *693:8 *1858:A2 1.86809e-06
*RES
1 *1857:Z *775:6 7.96429 
2 *775:6 *1858:A2 10.6786 
3 *775:6 *1859:B 5.92857 
*END

*D_NET *776 0.000353192
*CONN
*I *1861:A1 I *D NAND2_X1
*I *1858:ZN O *D NAND2_X1
*CAP
1 *1861:A1 0.000139394
2 *1858:ZN 0.000139394
3 *1861:A1 *1762:A 0
4 *1861:A1 *1857:A 0
5 *1861:A1 *1860:A1 5.79481e-05
6 *1861:A1 *1861:A2 1.64551e-05
*RES
1 *1858:ZN *1861:A1 37.5714 
*END

*D_NET *777 0.000485175
*CONN
*I *1860:A2 I *D NAND2_X1
*I *1862:B I *D XNOR2_X2
*I *1859:Z O *D XOR2_X2
*CAP
1 *1860:A2 3.02493e-05
2 *1862:B 0.000179023
3 *1859:Z 0.000148773
4 *1860:A2 *1862:A 5.06354e-05
5 *1860:A2 *1234:58 9.57948e-06
6 *1862:B *1860:A1 0
7 *1859:A *1862:B 1.045e-05
8 *766:212 *1862:B 3.06741e-05
9 *774:10 *1862:B 2.57909e-05
*RES
1 *1859:Z *1862:B 37.2143 
2 *1862:B *1860:A2 14.75 
*END

*D_NET *778 9.94505e-05
*CONN
*I *1861:A2 I *D NAND2_X1
*I *1860:ZN O *D NAND2_X1
*CAP
1 *1861:A2 2.1687e-05
2 *1860:ZN 2.1687e-05
3 *1861:A2 *1862:A 3.96215e-05
4 *1861:A1 *1861:A2 1.64551e-05
*RES
1 *1860:ZN *1861:A2 13.75 
*END

*D_NET *779 0.000901199
*CONN
*I *1872:A2 I *D OR3_X1
*I *1871:B1 I *D OAI21_X4
*I *1861:ZN O *D NAND2_X1
*CAP
1 *1872:A2 5.59335e-05
2 *1871:B1 0.000310702
3 *1861:ZN 0.000254769
4 *1871:B1 *1857:A 0
5 *1871:B1 *1862:A 1.15841e-05
6 *1871:B1 *2243:CK 0
7 *1871:B1 *1234:16 0
8 *1871:B1 *1234:58 0
9 *1871:B1 *1241:10 0
10 *1871:A *1872:A2 2.25089e-06
11 *1872:A1 *1872:A2 4.26368e-05
12 *2128:A *1871:B1 0.000167181
13 *2128:A *1872:A2 0
14 *2242:RN *1871:B1 5.61423e-05
*RES
1 *1861:ZN *1871:B1 40.9286 
2 *1871:B1 *1872:A2 16.3571 
*END

*D_NET *780 0.000413176
*CONN
*I *1870:A I *D AOI21_X4
*I *1916:B I *D XNOR2_X1
*I *1862:ZN O *D XNOR2_X2
*CAP
1 *1870:A 4.48179e-05
2 *1916:B 2.04932e-05
3 *1862:ZN 0.000105662
4 *780:8 0.000170973
5 *1870:A *1870:B1 9.77662e-06
6 *1916:A *1916:B 5.10087e-06
7 *1916:A *780:8 4.62991e-06
8 *1917:A *1916:B 6.32202e-06
9 *2108:A2 *1870:A 2.00152e-05
10 *49:12 *1870:A 5.52692e-06
11 *49:12 *780:8 1.48912e-05
12 *85:6 *1870:A 4.9678e-06
13 *751:8 *1916:B 0
14 *751:8 *780:8 0
*RES
1 *1862:ZN *780:8 21.7857 
2 *780:8 *1916:B 12.2857 
3 *780:8 *1870:A 15.75 
*END

*D_NET *781 0.00018689
*CONN
*I *1864:B I *D XOR2_X1
*I *1863:Z O *D MUX2_X1
*CAP
1 *1864:B 5.33016e-05
2 *1863:Z 5.33016e-05
3 *1864:B *1863:A 6.81795e-05
4 *1864:B *1863:B 1.21072e-05
5 *1855:S *1864:B 0
6 *766:223 *1864:B 0
*RES
1 *1863:Z *1864:B 27.0357 
*END

*D_NET *782 0.000461738
*CONN
*I *1866:A1 I *D AND2_X1
*I *1867:A I *D XOR2_X1
*I *1864:Z O *D XOR2_X1
*CAP
1 *1866:A1 1.08e-05
2 *1867:A 7.11622e-05
3 *1864:Z 3.74658e-05
4 *782:8 0.000119428
5 *1866:A1 *1866:A2 2.39679e-06
6 *1867:A *1865:B 1.25215e-05
7 *1867:A *1866:A2 0
8 *1867:A *1867:B 2.79011e-05
9 *1867:A *1234:58 7.67361e-06
10 *1865:S *1867:A 5.56848e-05
11 *1865:S *782:8 0.000116704
*RES
1 *1864:Z *782:8 16.3571 
2 *782:8 *1867:A 19.2143 
3 *782:8 *1866:A1 11.25 
*END

*D_NET *783 0.000181941
*CONN
*I *1866:A2 I *D AND2_X1
*I *1867:B I *D XOR2_X1
*I *1865:Z O *D MUX2_X1
*CAP
1 *1866:A2 4.95794e-05
2 *1867:B 1.96742e-05
3 *1865:Z 0
4 *783:4 6.92536e-05
5 *1866:A2 *1864:A 0
6 *1867:B *1864:A 0
7 *1867:B *785:14 1.3136e-05
8 *1866:A1 *1866:A2 2.39679e-06
9 *1867:A *1866:A2 0
10 *1867:A *1867:B 2.79011e-05
*RES
1 *1865:Z *783:4 5 
2 *783:4 *1867:B 7.75 
3 *783:4 *1866:A2 10.2143 
*END

*D_NET *784 0.000591908
*CONN
*I *1868:A I *D AOI21_X2
*I *1866:ZN O *D AND2_X1
*CAP
1 *1868:A 0.000102121
2 *1866:ZN 0.000102121
3 *1868:A *1863:A 0.000210333
4 *1868:A *785:14 1.46605e-05
5 *1868:A *785:16 6.44194e-06
6 *1865:S *1868:A 0.00015623
*RES
1 *1866:ZN *1868:A 37.8929 
*END

*D_NET *785 0.000631857
*CONN
*I *1868:B1 I *D AOI21_X2
*I *1869:B1 I *D OAI21_X2
*I *1908:B I *D XNOR2_X1
*I *1867:Z O *D XOR2_X1
*CAP
1 *1868:B1 2.00069e-05
2 *1869:B1 2.96791e-05
3 *1908:B 4.95393e-05
4 *1867:Z 0.000106191
5 *785:16 0.000105066
6 *785:14 0.000152045
7 *1868:B1 *1868:B2 2.36213e-05
8 *1868:B1 *786:10 6.81575e-06
9 *1869:B1 *786:10 1.14604e-05
10 *1908:B *1869:A 1.78661e-06
11 *1908:B *786:10 0
12 *785:14 *1863:A 3.1269e-05
13 *785:14 *1864:A 2.01974e-05
14 *1867:B *785:14 1.3136e-05
15 *1868:A *785:14 1.46605e-05
16 *1868:A *785:16 6.44194e-06
17 *1869:B2 *1908:B 1.62643e-06
18 *1869:B2 *785:14 6.2777e-06
19 *1869:B2 *785:16 2.71058e-06
20 *1909:B *1908:B 1.12162e-05
21 *61:14 *1868:B1 0
22 *61:24 *1869:B1 0
23 *61:24 *1908:B 1.8111e-05
*RES
1 *1867:Z *785:14 24.7143 
2 *785:14 *785:16 2.96429 
3 *785:16 *1908:B 16.0714 
4 *785:16 *1869:B1 13.25 
5 *785:14 *1868:B1 12.75 
*END

*D_NET *786 0.000502137
*CONN
*I *1915:A2 I *D NAND2_X1
*I *1870:B1 I *D AOI21_X4
*I *1868:ZN O *D AOI21_X2
*CAP
1 *1915:A2 0
2 *1870:B1 4.6317e-05
3 *1868:ZN 0.000125292
4 *786:10 0.000171609
5 *786:10 *1868:B2 1.03728e-05
6 *1868:B1 *786:10 6.81575e-06
7 *1869:B1 *786:10 1.14604e-05
8 *1870:A *1870:B1 9.77662e-06
9 *1870:B2 *1870:B1 1.75797e-05
10 *1870:B2 *786:10 8.43215e-07
11 *1908:B *786:10 0
12 *1909:B *786:10 0
13 *49:12 *1870:B1 2.39679e-06
14 *49:12 *786:10 9.96734e-05
15 *61:24 *786:10 0
*RES
1 *1868:ZN *786:10 20.9286 
2 *786:10 *1870:B1 10.6786 
3 *786:10 *1915:A2 5 
*END

*D_NET *787 0.000329338
*CONN
*I *2241:D I *D DFFR_X1
*I *2114:ZN O *D OAI21_X1
*CAP
1 *2241:D 7.01482e-05
2 *2114:ZN 7.01482e-05
3 *2241:D *2111:A1 9.15405e-05
4 *2241:D *2241:CK 2.52965e-06
5 *2113:B1 *2241:D 3.47324e-05
6 *2114:A *2241:D 5.54369e-05
7 *61:256 *2241:D 0
8 *95:230 *2241:D 4.80268e-06
*RES
1 *2114:ZN *2241:D 30.5 
*END

*D_NET *788 0.00013476
*CONN
*I *2251:D I *D DFFR_X1
*I *2063:ZN O *D OAI21_X1
*CAP
1 *2251:D 5.58589e-05
2 *2063:ZN 5.58589e-05
3 *2251:D *2251:CK 5.39659e-06
4 *2063:A *2251:D 1.76461e-05
5 *2119:A *2251:D 0
6 *2251:RN *2251:D 0
7 *524:41 *2251:D 0
*RES
1 *2063:ZN *2251:D 26.25 
*END

*D_NET *789 0.000228417
*CONN
*I *2252:D I *D DFFR_X1
*I *2058:ZN O *D OAI21_X1
*CAP
1 *2252:D 0.000106442
2 *2058:ZN 0.000106442
3 *2058:A *2252:D 1.55319e-05
4 *95:81 *2252:D 0
5 *499:12 *2252:D 0
6 *530:118 *2252:D 0
*RES
1 *2058:ZN *2252:D 31.4643 
*END

*D_NET *790 0.000200636
*CONN
*I *2253:D I *D DFFR_X1
*I *2051:ZN O *D OAI21_X1
*CAP
1 *2253:D 8.1276e-05
2 *2051:ZN 8.1276e-05
3 *2253:D *1947:B 3.25548e-05
4 *1940:S *2253:D 0
5 *61:179 *2253:D 5.52959e-06
*RES
1 *2051:ZN *2253:D 30.3214 
*END

*D_NET *791 0.000276269
*CONN
*I *2254:D I *D DFFR_X1
*I *2046:ZN O *D OAI21_X1
*CAP
1 *2254:D 6.54928e-05
2 *2046:ZN 6.54928e-05
3 *2254:D *2254:CK 0.000143774
4 *2046:B1 *2254:D 0
5 *503:8 *2254:D 1.50869e-06
*RES
1 *2046:ZN *2254:D 29.0714 
*END

*D_NET *792 0.000272016
*CONN
*I *2255:D I *D DFFR_X1
*I *2040:ZN O *D OAI21_X1
*CAP
1 *2255:D 5.47723e-05
2 *2040:ZN 5.47723e-05
3 *2255:D *1541:B 0
4 *2255:D *2256:CK 2.57414e-05
5 *2255:D *1419:58 6.86795e-05
6 *2040:B1 *2255:D 2.75346e-06
7 *2040:B2 *2255:D 2.80752e-05
8 *524:222 *2255:D 2.16578e-05
9 *524:248 *2255:D 1.55645e-05
*RES
1 *2040:ZN *2255:D 28.75 
*END

*D_NET *793 0.000457082
*CONN
*I *2256:D I *D DFFR_X1
*I *2146:ZN O *D OAI21_X1
*CAP
1 *2256:D 0.000161635
2 *2146:ZN 0.000161635
3 *2256:D *1929:A1 3.54782e-06
4 *2146:A *2256:D 4.92138e-05
5 *61:153 *2256:D 1.40012e-05
6 *524:248 *2256:D 3.37896e-05
7 *530:221 *2256:D 3.32585e-05
*RES
1 *2146:ZN *2256:D 38.3214 
*END

*D_NET *794 0.00028749
*CONN
*I *2242:D I *D DFFR_X1
*I *2110:ZN O *D OAI21_X1
*CAP
1 *2242:D 0.000102184
2 *2110:ZN 0.000102184
3 *2242:D *2107:A1 3.05921e-05
4 *2242:D *2242:CK 6.44574e-06
5 *2242:D *1234:58 3.90891e-05
6 *2107:A2 *2242:D 0
7 *2110:B1 *2242:D 6.99525e-06
8 *50:14 *2242:D 0
*RES
1 *2110:ZN *2242:D 32.8214 
*END

*D_NET *795 0.00042356
*CONN
*I *2243:D I *D DFFR_X1
*I *2106:ZN O *D OAI21_X1
*CAP
1 *2243:D 9.92307e-05
2 *2106:ZN 9.92307e-05
3 *2243:D *2103:A1 0.000223578
4 *95:240 *2243:D 1.52083e-06
*RES
1 *2106:ZN *2243:D 33.8214 
*END

*D_NET *796 0.000651211
*CONN
*I *2244:D I *D DFFR_X1
*I *2102:ZN O *D OAI21_X1
*CAP
1 *2244:D 0.00014554
2 *2102:ZN 0.00014554
3 *2244:D *2101:B2 0.000248538
4 *2102:B2 *2244:D 0.000106519
5 *61:42 *2244:D 6.48216e-07
6 *494:12 *2244:D 0
7 *494:18 *2244:D 0
8 *524:260 *2244:D 4.42523e-06
*RES
1 *2102:ZN *2244:D 41.3572 
*END

*D_NET *797 0.000194806
*CONN
*I *2245:D I *D DFFR_X1
*I *2096:ZN O *D OAI21_X1
*CAP
1 *2245:D 2.65842e-05
2 *2096:ZN 2.65842e-05
3 *2245:D *2245:CK 3.07768e-05
4 *2096:A *2245:D 8.21816e-05
5 *524:266 *2245:D 2.86792e-05
*RES
1 *2096:ZN *2245:D 25.6786 
*END

*D_NET *798 0.000856047
*CONN
*I *2246:D I *D DFFR_X1
*I *2091:ZN O *D OAI21_X1
*CAP
1 *2246:D 0.000143542
2 *2091:ZN 0.000143542
3 *2246:D *2246:CK 3.69648e-06
4 *2090:A *2246:D 0.000429603
5 *95:16 *2246:D 1.43979e-05
6 *524:122 *2246:D 7.24029e-05
7 *530:14 *2246:D 8.80297e-06
8 *530:29 *2246:D 3.23338e-05
9 *530:31 *2246:D 7.72537e-06
*RES
1 *2091:ZN *2246:D 47.0714 
*END

*D_NET *799 0.000345437
*CONN
*I *2247:D I *D DFFR_X1
*I *2085:ZN O *D OAI21_X1
*CAP
1 *2247:D 5.69336e-05
2 *2085:ZN 5.69336e-05
3 *2247:D *1543:A 9.49605e-05
4 *2247:D *1418:81 3.07768e-05
5 *530:46 *2247:D 0.000105832
*RES
1 *2085:ZN *2247:D 29.75 
*END

*D_NET *800 0.000264633
*CONN
*I *2248:D I *D DFFR_X1
*I *2080:ZN O *D OAI21_X1
*CAP
1 *2248:D 0.000119636
2 *2080:ZN 0.000119636
3 *2248:D *1975:A1 0
4 *2248:D *2075:A1 0
5 *2080:B1 *2248:D 1.11168e-06
6 *61:69 *2248:D 2.42487e-05
7 *524:104 *2248:D 0
*RES
1 *2080:ZN *2248:D 32.6786 
*END

*D_NET *801 0.000322886
*CONN
*I *2249:D I *D DFFR_X1
*I *2074:ZN O *D OAI21_X1
*CAP
1 *2249:D 0.000132213
2 *2074:ZN 0.000132213
3 *2249:D *2249:CK 1.1025e-05
4 *766:28 *2249:D 4.74353e-05
*RES
1 *2074:ZN *2249:D 34.3929 
*END

*D_NET *802 0.000228778
*CONN
*I *2250:D I *D DFFR_X1
*I *2069:ZN O *D OAI21_X1
*CAP
1 *2250:D 9.80246e-05
2 *2069:ZN 9.80246e-05
3 *2250:D *2250:CK 0
4 *2069:B1 *2250:D 0
5 *61:92 *2250:D 0
6 *524:45 *2250:D 3.27287e-05
*RES
1 *2069:ZN *2250:D 31.4643 
*END

*D_NET *803 0.000318774
*CONN
*I *2239:D I *D DFFS_X1
*I *2132:ZN O *D NAND2_X1
*CAP
1 *2239:D 0.000123401
2 *2132:ZN 0.000123401
3 *2239:D *1271:8 1.82068e-05
4 *2239:D *1271:10 4.29184e-05
5 *2239:D *1420:14 6.67352e-06
6 *2239:D *1420:20 4.17387e-06
7 *2239:D *1420:62 0
8 *2130:B1 *2239:D 0
*RES
1 *2132:ZN *2239:D 34.3571 
*END

*D_NET *806 7.48486e-05
*CONN
*I *1613:A2 I *D NAND2_X1
*I *2257:QN O *D DFFR_X1
*CAP
1 *1613:A2 2.37029e-05
2 *2257:QN 2.37029e-05
3 *1613:A2 *1613:A1 2.74429e-05
*RES
1 *2257:QN *1613:A2 23.6429 
*END

*D_NET *837 0.000298641
*CONN
*I *2173:B I *D XNOR2_X1
*I *2258:Z O *D LOGIC1_X1
*CAP
1 *2173:B 0.000138751
2 *2258:Z 0.000138751
3 *2173:B *2173:A 1.87418e-05
4 *2173:B *2177:A 0
5 *2173:B *2218:A1 0
6 *289:10 *2173:B 2.39679e-06
*RES
1 *2258:Z *2173:B 34.8214 
*END

*D_NET *838 0.000505802
*CONN
*I *2184:B I *D XNOR2_X1
*I *2259:Z O *D LOGIC1_X1
*CAP
1 *2184:B 0.000180299
2 *2259:Z 0.000180299
3 *2184:B *2179:A 1.1025e-05
4 *2184:B *2216:A 0
5 *2221:A *2184:B 8.70312e-06
6 *300:12 *2184:B 0.00012095
7 *301:12 *2184:B 4.52607e-06
*RES
1 *2259:Z *2184:B 42 
*END

*D_NET *839 0.000444746
*CONN
*I *2188:B I *D XNOR2_X1
*I *2260:Z O *D LOGIC1_X1
*CAP
1 *2188:B 0.000218165
2 *2260:Z 0.000218165
3 *2188:B *2174:A 0
4 *2175:B *2188:B 4.80399e-06
5 *290:8 *2188:B 3.61155e-06
6 *340:12 *2188:B 0
*RES
1 *2260:Z *2188:B 44.0357 
*END

*D_NET *840 0.000583514
*CONN
*I *2191:B I *D XNOR2_X1
*I *2261:Z O *D LOGIC1_X1
*CAP
1 *2191:B 0.000173106
2 *2261:Z 0.000173106
3 *2191:B *1468:A 6.32202e-06
4 *2191:B *1472:B2 8.25351e-05
5 *2191:B *1586:A1 4.9678e-06
6 *1586:A2 *2191:B 7.19036e-06
7 *1588:A4 *2191:B 1.40196e-05
8 *1589:A2 *2191:B 0
9 *307:8 *2191:B 1.77822e-05
10 *390:14 *2191:B 1.0303e-05
11 *508:8 *2191:B 9.41822e-05
*RES
1 *2261:Z *2191:B 45 
*END

*D_NET *841 0.000486002
*CONN
*I *2195:B I *D XNOR2_X1
*I *2262:Z O *D LOGIC1_X1
*CAP
1 *2195:B 0.000223091
2 *2262:Z 0.000223091
3 *2195:B *1735:B 0
4 *2195:B *1737:A 6.44217e-06
5 *2195:B *1807:A 0
6 *2195:B *1817:A 5.74951e-06
7 *2195:B *2195:A 2.76278e-05
8 *654:6 *2195:B 0
9 *726:12 *2195:B 0
*RES
1 *2262:Z *2195:B 45 
*END

*D_NET *842 0.000456807
*CONN
*I *2199:B I *D XOR2_X1
*I *2263:Z O *D LOGIC1_X1
*CAP
1 *2199:B 0.000209093
2 *2263:Z 0.000209093
3 *2199:B *2199:A 3.51654e-06
4 *2199:B *2200:A 3.51054e-05
5 *2199:B *2202:A1 0
6 *2199:B *2202:B2 0
7 *2202:B1 *2199:B 0
*RES
1 *2263:Z *2199:B 43.3214 
*END

*D_NET *843 0.000365305
*CONN
*I *1426:B I *D XNOR2_X1
*I *2264:Z O *D LOGIC1_X1
*CAP
1 *1426:B 0.000166459
2 *2264:Z 0.000166459
3 *1426:B *1426:A 1.85755e-05
4 *1426:B *2209:B2 0
5 *508:8 *1426:B 1.07143e-05
6 *511:8 *1426:B 3.09682e-06
*RES
1 *2264:Z *1426:B 39.25 
*END

*D_NET *844 0.000449218
*CONN
*I *1430:B I *D XOR2_X1
*I *2265:Z O *D LOGIC1_X1
*CAP
1 *1430:B 0.000203424
2 *2265:Z 0.000203424
3 *1430:B *1431:A1 9.80649e-06
4 *1430:B *1454:A 1.31814e-05
5 *1430:B *1457:A 1.77822e-05
6 *1430:B *1458:A 9.62051e-07
7 *1430:B *1458:B 0
8 *1430:B *1461:A1 6.38328e-07
9 *371:12 *1430:B 0
*RES
1 *2265:Z *1430:B 43.3214 
*END

*D_NET *845 8.41335e-05
*CONN
*I *1435:B I *D XNOR2_X2
*I *2266:Z O *D LOGIC1_X1
*CAP
1 *1435:B 2.50094e-05
2 *2266:Z 2.50094e-05
3 *1435:B *1435:A 3.41146e-05
*RES
1 *2266:Z *1435:B 13.25 
*END

*D_NET *846 0.000504623
*CONN
*I *1439:B I *D XOR2_X1
*I *2267:Z O *D LOGIC1_X1
*CAP
1 *1439:B 7.50616e-05
2 *2267:Z 7.50616e-05
3 *1439:B *1441:A 0.000108745
4 *1439:B *1480:A 0
5 *1439:B *1059:14 0.000201695
6 *1440:A2 *1439:B 2.64615e-05
7 *1442:A2 *1439:B 0
8 *358:8 *1439:B 1.53357e-05
9 *360:10 *1439:B 2.26306e-06
*RES
1 *2267:Z *1439:B 34.5357 
*END

*D_NET *847 0.000110342
*CONN
*I *1452:B I *D XNOR2_X2
*I *2268:Z O *D LOGIC1_X1
*CAP
1 *1452:B 5.22962e-05
2 *2268:Z 5.22962e-05
3 *1452:B *1452:A 5.74951e-06
*RES
1 *2268:Z *1452:B 15.5357 
*END

*D_NET *848 0.000676694
*CONN
*I *1458:B I *D XNOR2_X1
*I *2269:Z O *D LOGIC1_X1
*CAP
1 *1458:B 0.000176894
2 *2269:Z 0.000176894
3 *1458:B *1457:A 8.41402e-06
4 *1458:B *1458:A 1.85634e-05
5 *1458:B *1461:A1 1.64805e-05
6 *1458:B *1463:A 3.26887e-06
7 *1430:B *1458:B 0
8 *1459:A1 *1458:B 1.71706e-05
9 *1460:B *1458:B 0.000120658
10 *377:8 *1458:B 0.000134192
11 *379:8 *1458:B 4.15825e-06
*RES
1 *2269:Z *1458:B 45.25 
*END

*D_NET *849 0.000209023
*CONN
*I *1464:B I *D XNOR2_X1
*I *2270:Z O *D LOGIC1_X1
*CAP
1 *1464:B 9.39424e-05
2 *2270:Z 9.39424e-05
3 *1464:B *1464:A 1.87418e-05
4 *383:10 *1464:B 2.39679e-06
*RES
1 *2270:Z *1464:B 30.0714 
*END

*D_NET *850 8.95699e-05
*CONN
*I *1469:B I *D XNOR2_X1
*I *2271:Z O *D LOGIC1_X1
*CAP
1 *1469:B 4.47849e-05
2 *2271:Z 4.47849e-05
3 *388:10 *1469:B 0
*RES
1 *2271:Z *1469:B 25 
*END

*D_NET *851 0.000368754
*CONN
*I *1485:B I *D XNOR2_X1
*I *2272:Z O *D LOGIC1_X1
*CAP
1 *1485:B 0.000179002
2 *2272:Z 0.000179002
3 *2205:A3 *1485:B 1.52083e-06
4 *404:8 *1485:B 9.22998e-06
*RES
1 *2272:Z *1485:B 39.25 
*END

*D_NET *852 0.000392205
*CONN
*I *1489:B I *D XOR2_X1
*I *2273:Z O *D LOGIC1_X1
*CAP
1 *1489:B 0.000126415
2 *2273:Z 0.000126415
3 *1489:B *2199:A 2.87193e-05
4 *1489:B *2202:B2 4.08953e-05
5 *315:8 *1489:B 6.97608e-05
6 *408:10 *1489:B 0
*RES
1 *2273:Z *1489:B 37.8929 
*END

*D_NET *853 0.000476677
*CONN
*I *1494:B I *D XNOR2_X1
*I *2274:Z O *D LOGIC1_X1
*CAP
1 *1494:B 0.000207874
2 *2274:Z 0.000207874
3 *1494:B *1496:A 0
4 *1501:A *1494:B 8.41616e-06
5 *1511:A1 *1494:B 2.80752e-05
6 *1512:A1 *1494:B 1.86875e-06
7 *524:10 *1494:B 2.25685e-05
*RES
1 *2274:Z *1494:B 44.0357 
*END

*D_NET *854 0.000580534
*CONN
*I *1497:B I *D XOR2_X1
*I *2275:Z O *D LOGIC1_X1
*CAP
1 *1497:B 0.0001405
2 *2275:Z 0.0001405
3 *1497:B *1494:A 1.83288e-05
4 *1497:B *1497:A 6.44217e-06
5 *1497:B *1500:A1 0.000274763
6 *1497:B *1237:25 0
7 *416:10 *1497:B 0
8 *418:12 *1497:B 0
9 *511:8 *1497:B 0
*RES
1 *2275:Z *1497:B 40.1786 
*END

*D_NET *855 0.000396211
*CONN
*I *1516:B I *D XNOR2_X1
*I *2276:Z O *D LOGIC1_X1
*CAP
1 *1516:B 0.000157679
2 *2276:Z 0.000157679
3 *2116:A *1516:B 1.65484e-05
4 *2118:A *1516:B 0
5 *61:173 *1516:B 2.09871e-05
6 *503:8 *1516:B 4.33176e-05
7 *530:118 *1516:B 0
*RES
1 *2276:Z *1516:B 39.25 
*END

*D_NET *856 0.000497707
*CONN
*I *1513:B I *D XNOR2_X1
*I *2277:Z O *D LOGIC1_X1
*CAP
1 *1513:B 0.000163622
2 *2277:Z 0.000163622
3 *1513:B *2050:B2 0.000113598
4 *2050:A *1513:B 1.1025e-05
5 *2050:B1 *1513:B 2.15238e-06
6 *2051:A *1513:B 5.01336e-06
7 *432:8 *1513:B 1.77822e-05
8 *524:18 *1513:B 1.59687e-05
9 *524:31 *1513:B 4.92317e-06
*RES
1 *2277:Z *1513:B 42 
*END

*D_NET *857 0.000595219
*CONN
*I *1521:B I *D XNOR2_X1
*I *2278:Z O *D LOGIC1_X1
*CAP
1 *1521:B 0.000122158
2 *2278:Z 0.000122158
3 *2121:A *1521:B 0
4 *61:79 *1521:B 0
5 *511:41 *1521:B 0.000350903
*RES
1 *2278:Z *1521:B 38.5714 
*END

*D_NET *858 0.000729898
*CONN
*I *1528:B I *D XNOR2_X1
*I *2279:Z O *D LOGIC1_X1
*CAP
1 *1528:B 0.000198275
2 *2279:Z 0.000198275
3 *1528:B *1528:A 1.32348e-05
4 *1528:B *1531:B2 4.46014e-06
5 *1528:B *1248:27 0
6 *1528:B *1418:20 7.07065e-05
7 *1529:A1 *1528:B 1.02238e-05
8 *1529:A2 *1528:B 7.5597e-05
9 *1531:A *1528:B 2.99994e-05
10 *1531:B1 *1528:B 3.56012e-06
11 *1532:A2 *1528:B 2.83434e-06
12 *61:79 *1528:B 0
13 *447:8 *1528:B 0.00012095
14 *511:56 *1528:B 0
15 *530:101 *1528:B 1.78252e-06
*RES
1 *2279:Z *1528:B 47.25 
*END

*D_NET *859 0.000628316
*CONN
*I *1541:B I *D XOR2_X1
*I *2280:Z O *D LOGIC1_X1
*CAP
1 *1541:B 0.000151214
2 *2280:Z 0.000151214
3 *1541:B *1542:A 0
4 *1541:B *2039:B2 0.000196714
5 *1541:B *1419:58 3.62357e-05
6 *1541:B *1419:66 0
7 *2040:B2 *1541:B 5.11574e-06
8 *2255:D *1541:B 0
9 *99:12 *1541:B 6.39696e-06
10 *524:222 *1541:B 8.14262e-05
*RES
1 *2280:Z *1541:B 41.1072 
*END

*D_NET *860 0.000343089
*CONN
*I *1543:B I *D XOR2_X1
*I *2281:Z O *D LOGIC1_X1
*CAP
1 *1543:B 0.000171544
2 *2281:Z 0.000171544
3 *1543:B *1579:A2 0
4 *1579:A3 *1543:B 0
5 *462:10 *1543:B 0
*RES
1 *2281:Z *1543:B 38.5714 
*END

*D_NET *861 0.000418799
*CONN
*I *1547:B I *D XOR2_X1
*I *2282:Z O *D LOGIC1_X1
*CAP
1 *1547:B 0.000202234
2 *2282:Z 0.000202234
3 *1547:B *1418:90 1.34578e-05
4 *1549:A2 *1547:B 0
5 *1552:B2 *1547:B 0
6 *1556:A *1547:B 8.727e-07
7 *466:8 *1547:B 0
8 *467:8 *1547:B 0
9 *468:8 *1547:B 0
*RES
1 *2282:Z *1547:B 41.1429 
*END

*D_NET *862 0.000630289
*CONN
*I *1553:B I *D XOR2_X1
*I *2283:Z O *D LOGIC1_X1
*CAP
1 *1553:B 0.000181226
2 *2283:Z 0.000181226
3 *1553:B *1557:A 0.000260169
4 *1553:B *1557:B 7.66905e-06
*RES
1 *2283:Z *1553:B 43.3214 
*END

*D_NET *863 0.000496912
*CONN
*I *1557:B I *D XOR2_X1
*I *2284:Z O *D LOGIC1_X1
*CAP
1 *1557:B 0.000230321
2 *2284:Z 0.000230321
3 *1557:B *2133:A1 1.45805e-05
4 *1553:B *1557:B 7.66905e-06
5 *2146:B1 *1557:B 0
6 *476:12 *1557:B 1.40196e-05
*RES
1 *2284:Z *1557:B 44 
*END

*D_NET *864 0.000635305
*CONN
*I *1562:B I *D XOR2_X1
*I *2285:Z O *D LOGIC1_X1
*CAP
1 *1562:B 0.00015102
2 *2285:Z 0.00015102
3 *1562:B *1562:A 4.32144e-07
4 *1562:B *1563:A 5.32925e-06
5 *1562:B *1786:B2 2.44346e-05
6 *1562:B *1788:B2 0.000185279
7 *1562:B *1790:A2 0.000106854
8 *481:10 *1562:B 7.72792e-06
9 *704:8 *1562:B 2.52965e-06
10 *704:21 *1562:B 6.79052e-07
*RES
1 *2285:Z *1562:B 43.5714 
*END

*D_NET *865 0.00055542
*CONN
*I *1566:B I *D XOR2_X1
*I *2286:Z O *D LOGIC1_X1
*CAP
1 *1566:B 0.000189538
2 *2286:Z 0.000189538
3 *1566:B *1566:A 1.40196e-06
4 *1566:B *1568:A 9.46688e-05
5 *1566:B *1572:A2 7.14424e-06
6 *1566:B *1695:A 6.89712e-05
7 *1566:B *1779:A 0
8 *1566:B *1780:A 0
9 *1566:B *1780:C2 0
10 *1779:B *1566:B 0
11 *1780:B *1566:B 6.38328e-07
12 *1781:A2 *1566:B 0
13 *1781:A3 *1566:B 3.51992e-06
*RES
1 *2286:Z *1566:B 42.8929 
*END

*D_NET *866 0.000286529
*CONN
*I *1569:B I *D XOR2_X1
*I *2287:Z O *D LOGIC1_X1
*CAP
1 *1569:B 0.000117217
2 *2287:Z 0.000117217
3 *1569:B *1570:A 1.25407e-05
4 *1569:B *1756:A 3.9554e-05
*RES
1 *2287:Z *1569:B 35.1786 
*END

*D_NET *867 0.000500999
*CONN
*I *1624:B I *D XOR2_X1
*I *2288:Z O *D LOGIC1_X1
*CAP
1 *1624:B 0.000165258
2 *2288:Z 0.000165258
3 *1624:B *1620:B 0.000134734
4 *1624:B *1666:A 2.62229e-05
5 *1624:B *1765:B 9.5257e-06
6 *1624:B *1258:9 0
*RES
1 *2288:Z *1624:B 41.5714 
*END

*D_NET *868 0.000607333
*CONN
*I *1620:B I *D XNOR2_X1
*I *2289:Z O *D LOGIC1_X1
*CAP
1 *1620:B 0.000143763
2 *2289:Z 0.000143763
3 *1620:B *1628:A 0
4 *1620:B *1666:A 1.71681e-05
5 *1620:B *1258:9 0
6 *1624:B *1620:B 0.000134734
7 *1669:A2 *1620:B 4.81724e-05
8 *1669:B2 *1620:B 1.20697e-05
9 *539:10 *1620:B 0.000107663
*RES
1 *2289:Z *1620:B 42 
*END

*D_NET *869 0.000324134
*CONN
*I *1627:B I *D XOR2_X1
*I *2290:Z O *D LOGIC1_X1
*CAP
1 *1627:B 0.000162067
2 *2290:Z 0.000162067
3 *1627:B *1640:B 0
*RES
1 *2290:Z *1627:B 38.5714 
*END

*D_NET *870 0.000140212
*CONN
*I *1631:B I *D XNOR2_X1
*I *2291:Z O *D LOGIC1_X1
*CAP
1 *1631:B 7.01058e-05
2 *2291:Z 7.01058e-05
*RES
1 *2291:Z *1631:B 27.0714 
*END

*D_NET *871 0.000176689
*CONN
*I *1635:B I *D XOR2_X1
*I *2292:Z O *D LOGIC1_X1
*CAP
1 *1635:B 8.83447e-05
2 *2292:Z 8.83447e-05
3 *1635:B *1635:A 0
4 *554:6 *1635:B 0
*RES
1 *2292:Z *1635:B 29.0714 
*END

*D_NET *872 0.000408118
*CONN
*I *1640:B I *D XNOR2_X1
*I *2293:Z O *D LOGIC1_X1
*CAP
1 *1640:B 0.000194412
2 *2293:Z 0.000194412
3 *1640:B *1652:A 0
4 *1627:B *1640:B 0
5 *1633:A2 *1640:B 1.61965e-05
6 *551:10 *1640:B 3.09682e-06
*RES
1 *2293:Z *1640:B 42 
*END

*D_NET *873 0.000370068
*CONN
*I *1645:B I *D XNOR2_X1
*I *2294:Z O *D LOGIC1_X1
*CAP
1 *1645:B 0.000163981
2 *2294:Z 0.000163981
3 *1645:B *1644:A 0
4 *1645:B *1826:A1 0
5 *1718:A *1645:B 0
6 *748:10 *1645:B 4.21054e-05
*RES
1 *2294:Z *1645:B 39.25 
*END

*D_NET *874 0.000419188
*CONN
*I *1676:B I *D XNOR2_X1
*I *2295:Z O *D LOGIC1_X1
*CAP
1 *1676:B 0.000175916
2 *2295:Z 0.000175916
3 *1676:B *1644:A 0
4 *1676:B *1647:A 0
5 *748:10 *1676:B 6.73568e-05
*RES
1 *2295:Z *1676:B 41.3214 
*END

*D_NET *875 0.00060996
*CONN
*I *1679:B I *D XNOR2_X1
*I *2296:Z O *D LOGIC1_X1
*CAP
1 *1679:B 0.000223775
2 *2296:Z 0.000223775
3 *1679:B *1677:A 0
4 *1679:B *1678:A 0.000133403
5 *1679:B *1679:A 8.26038e-06
6 *1726:A *1679:B 0
7 *1726:C1 *1679:B 1.43476e-06
8 *596:12 *1679:B 1.90956e-05
9 *598:20 *1679:B 2.16072e-07
*RES
1 *2296:Z *1679:B 45.25 
*END

*D_NET *876 0.000406527
*CONN
*I *1683:B I *D XNOR2_X1
*I *2297:Z O *D LOGIC1_X1
*CAP
1 *1683:B 0.000152226
2 *2297:Z 0.000152226
3 *1683:B *1688:B 6.32461e-06
4 *1683:B *1730:B 0
5 *1683:B *1753:B 9.57501e-05
6 *1689:A2 *1683:B 0
*RES
1 *2297:Z *1683:B 39.25 
*END

*D_NET *877 0.000448941
*CONN
*I *1688:B I *D XNOR2_X1
*I *2298:Z O *D LOGIC1_X1
*CAP
1 *1688:B 0.000185898
2 *2298:Z 0.000185898
3 *1688:B *1690:A 1.04632e-05
4 *1688:B *1704:A 2.12997e-05
5 *1688:B *1727:A 0
6 *1688:B *1730:B 1.25306e-05
7 *1683:B *1688:B 6.32461e-06
8 *1729:A2 *1688:B 2.09547e-05
9 *647:10 *1688:B 5.57182e-06
*RES
1 *2298:Z *1688:B 42 
*END

*D_NET *878 0.000467771
*CONN
*I *1700:B I *D XOR2_X1
*I *2299:Z O *D LOGIC1_X1
*CAP
1 *1700:B 0.000232094
2 *2299:Z 0.000232094
3 *1709:A2 *1700:B 0
4 *1722:A *1700:B 0
5 *640:12 *1700:B 3.58205e-06
*RES
1 *2299:Z *1700:B 44.7143 
*END

*D_NET *879 0.000215382
*CONN
*I *1705:B I *D XNOR2_X1
*I *2300:Z O *D LOGIC1_X1
*CAP
1 *1705:B 8.54368e-05
2 *2300:Z 8.54368e-05
3 *1705:B *1705:A 1.92742e-05
4 *1705:B *1707:A 9.3409e-06
5 *1705:B *1811:A1 0
6 *624:6 *1705:B 1.58933e-05
*RES
1 *2300:Z *1705:B 30.0714 
*END

*D_NET *880 0.000219143
*CONN
*I *1711:B I *D XNOR2_X1
*I *2301:Z O *D LOGIC1_X1
*CAP
1 *1711:B 0.000109571
2 *2301:Z 0.000109571
3 *1711:B *1711:A 0
*RES
1 *2301:Z *1711:B 31.4286 
*END

*D_NET *881 0.000588259
*CONN
*I *1715:B I *D XNOR2_X1
*I *2302:Z O *D LOGIC1_X1
*CAP
1 *1715:B 0.000204334
2 *2302:Z 0.000204334
3 *1715:B *1635:A 1.58933e-05
4 *1715:B *1714:A 0.000160182
5 *1716:A1 *1715:B 0
6 *1716:A2 *1715:B 0
7 *1717:B *1715:B 0
8 *554:6 *1715:B 3.51536e-06
*RES
1 *2302:Z *1715:B 45 
*END

*D_NET *882 0.000733763
*CONN
*I *1728:B I *D XNOR2_X1
*I *2303:Z O *D LOGIC1_X1
*CAP
1 *1728:B 0.000168687
2 *2303:Z 0.000168687
3 *1728:B *1704:A 0.000302085
4 *1728:B *1707:A 3.09143e-06
5 *1728:B *1728:A 4.06674e-05
6 *1706:A1 *1728:B 1.55645e-05
7 *624:6 *1728:B 1.39839e-06
8 *647:10 *1728:B 3.35822e-05
*RES
1 *2303:Z *1728:B 45.5 
*END

*D_NET *883 0.000283855
*CONN
*I *1797:B I *D XNOR2_X1
*I *2304:Z O *D LOGIC1_X1
*CAP
1 *1797:B 0.000129622
2 *2304:Z 0.000129622
3 *1797:B *1812:A 2.46104e-05
4 *1798:B *1797:B 0
*RES
1 *2304:Z *1797:B 35.1786 
*END

*D_NET *884 0.000395219
*CONN
*I *1804:B I *D XNOR2_X1
*I *2305:Z O *D LOGIC1_X1
*CAP
1 *1804:B 0.000182135
2 *2305:Z 0.000182135
3 *1804:B *1688:A 9.62051e-07
4 *1804:B *1801:A 0
5 *742:10 *1804:B 2.99872e-05
*RES
1 *2305:Z *1804:B 40 
*END

*D_NET *885 0.00050819
*CONN
*I *1807:B I *D XNOR2_X1
*I *2306:Z O *D LOGIC1_X1
*CAP
1 *1807:B 0.000196373
2 *2306:Z 0.000196373
3 *1807:B *1797:A 0
4 *1807:B *1808:A 0
5 *1807:B *1817:A 0.000108252
6 *1818:A1 *1807:B 7.19234e-06
*RES
1 *2306:Z *1807:B 45 
*END

*D_NET *886 0.000420984
*CONN
*I *1730:B I *D XNOR2_X1
*I *2307:Z O *D LOGIC1_X1
*CAP
1 *1730:B 0.000173596
2 *2307:Z 0.000173596
3 *1730:B *1727:A 6.1261e-05
4 *1683:B *1730:B 0
5 *1688:B *1730:B 1.25306e-05
*RES
1 *2307:Z *1730:B 41.9643 
*END

*D_NET *887 0.000560527
*CONN
*I *1735:B I *D XNOR2_X1
*I *2308:Z O *D LOGIC1_X1
*CAP
1 *1735:B 0.000208843
2 *2308:Z 0.000208843
3 *1735:B *1735:A 1.87418e-05
4 *1735:B *1817:A 0
5 *2195:B *1735:B 0
6 *654:6 *1735:B 1.58933e-05
7 *726:12 *1735:B 0.000108205
*RES
1 *2308:Z *1735:B 44.3214 
*END

*D_NET *888 0.00058358
*CONN
*I *1741:B I *D XNOR2_X1
*I *2309:Z O *D LOGIC1_X1
*CAP
1 *1741:B 0.000173059
2 *2309:Z 0.000173059
3 *1741:B *1750:A 0
4 *1751:A1 *1741:B 0
5 *1751:A2 *1741:B 0
6 *2137:B *1741:B 5.23292e-05
7 *660:12 *1741:B 0.000185133
*RES
1 *2309:Z *1741:B 42 
*END

*D_NET *889 0.00057366
*CONN
*I *1745:B I *D XNOR2_X1
*I *2310:Z O *D LOGIC1_X1
*CAP
1 *1745:B 0.000192054
2 *2310:Z 0.000192054
3 *1745:B *1562:A 0
4 *1745:B *1745:A 7.72537e-06
5 *1745:B *1786:A 0
6 *1745:B *1786:B2 3.04959e-05
7 *1745:B *1790:A1 6.25396e-05
8 *1788:B1 *1745:B 0
9 *1789:A2 *1745:B 8.27554e-05
10 *1789:A4 *1745:B 0
11 *1790:A3 *1745:B 6.03486e-06
12 *704:8 *1745:B 0
*RES
1 *2310:Z *1745:B 45.25 
*END

*D_NET *890 0.000403599
*CONN
*I *1785:B I *D XOR2_X1
*I *2311:Z O *D LOGIC1_X1
*CAP
1 *1785:B 0.000184174
2 *2311:Z 0.000184174
3 *1785:B *1753:A 0
4 *1785:B *1849:B 0
5 *1784:A3 *1785:B 3.65597e-06
6 *1787:A *1785:B 2.80752e-05
7 *1789:A1 *1785:B 3.51992e-06
*RES
1 *2311:Z *1785:B 40.6429 
*END

*D_NET *891 0.000496789
*CONN
*I *1753:B I *D XOR2_X1
*I *2312:Z O *D LOGIC1_X1
*CAP
1 *1753:B 0.000128786
2 *2312:Z 0.000128786
3 *1753:B *1684:A 0
4 *1753:B *1784:A1 0.00012148
5 *1753:B *1784:A2 2.04476e-05
6 *1683:B *1753:B 9.57501e-05
7 *672:8 *1753:B 1.53859e-06
*RES
1 *2312:Z *1753:B 38.5714 
*END

*D_NET *892 0.000671241
*CONN
*I *1754:B I *D XOR2_X1
*I *2313:Z O *D LOGIC1_X1
*CAP
1 *1754:B 0.000167646
2 *2313:Z 0.000167646
3 *1754:B *1570:B 0
4 *1754:B *1754:A 1.83411e-06
5 *1754:B *1755:A1 0.000313997
6 *1754:B *1782:A 1.40436e-05
7 *1784:B2 *1754:B 6.07323e-06
*RES
1 *2313:Z *1754:B 43.5714 
*END

*D_NET *893 0.000346645
*CONN
*I *1778:B I *D XOR2_X1
*I *2314:Z O *D LOGIC1_X1
*CAP
1 *1778:B 0.000173322
2 *2314:Z 0.000173322
3 *1778:B *1779:A 0
4 *1778:B *1779:C2 0
5 *1780:B *1778:B 0
6 *697:10 *1778:B 0
*RES
1 *2314:Z *1778:B 38.5714 
*END

*D_NET *894 0.000704416
*CONN
*I *1758:B I *D XOR2_X1
*I *2315:Z O *D LOGIC1_X1
*CAP
1 *1758:B 0.000111039
2 *2315:Z 0.000111039
3 *1758:B *1759:A1 1.90574e-06
4 *1758:B *1760:B2 5.49364e-05
5 *1758:B *1761:A1 0.000171599
6 *1758:B *1761:A2 9.91569e-06
7 *1760:B1 *1758:B 0.000106874
8 *677:8 *1758:B 6.92191e-05
9 *677:21 *1758:B 6.78878e-05
*RES
1 *2315:Z *1758:B 40.6429 
*END

*D_NET *895 0.000590681
*CONN
*I *1762:B I *D XOR2_X1
*I *2316:Z O *D LOGIC1_X1
*CAP
1 *1762:B 0.000214419
2 *2316:Z 0.000214419
3 *1762:B *1759:A1 1.32929e-05
4 *1762:B *1760:B2 0
5 *1762:B *1761:A2 4.79831e-05
6 *1762:B *1762:A 4.54723e-06
7 *1760:B1 *1762:B 1.01247e-05
8 *1761:A3 *1762:B 7.19036e-06
9 *1777:A *1762:B 1.52425e-06
10 *1777:B *1762:B 0
11 *1777:C1 *1762:B 7.72792e-06
12 *1777:C2 *1762:B 6.22622e-05
13 *681:10 *1762:B 7.19036e-06
*RES
1 *2316:Z *1762:B 46.8929 
*END

*D_NET *896 0.000403721
*CONN
*I *1765:B I *D XOR2_X1
*I *2317:Z O *D LOGIC1_X1
*CAP
1 *1765:B 0.000146724
2 *2317:Z 0.000146724
3 *1765:B *1624:A 1.53648e-05
4 *1765:B *1765:A 3.09143e-06
5 *1765:B *1258:9 7.89265e-05
6 *1765:B *1413:14 3.36492e-06
7 *1624:B *1765:B 9.5257e-06
*RES
1 *2317:Z *1765:B 40.6429 
*END

*D_NET *897 0.000443419
*CONN
*I *1769:B I *D XOR2_X1
*I *2318:Z O *D LOGIC1_X1
*CAP
1 *1769:B 0.000152744
2 *2318:Z 0.000152744
3 *1769:B *1765:A 5.84677e-05
4 *1769:B *1771:C2 2.16603e-05
5 *1769:B *1258:9 0
6 *1769:B *1413:14 0
7 *1771:B1 *1769:B 5.78021e-05
*RES
1 *2318:Z *1769:B 40.6429 
*END

*D_NET *898 0.000339909
*CONN
*I *2179:B I *D XNOR2_X2
*I *2319:Z O *D LOGIC1_X1
*CAP
1 *2179:B 9.4593e-05
2 *2319:Z 9.4593e-05
3 *2179:B *2179:A 0.000140181
4 *2179:B *2180:A 0
5 *2179:B *2216:A 9.62051e-07
6 *2180:B *2179:B 9.57948e-06
*RES
1 *2319:Z *2179:B 23.25 
*END

*D_NET *899 0.000582135
*CONN
*I *1570:B I *D AOI211_X1
*I *2320:Z O *D LOGIC1_X1
*CAP
1 *1570:B 0.000190905
2 *2320:Z 0.000190905
3 *1570:B *1570:A 2.70696e-05
4 *1570:B *1571:A2 6.76378e-05
5 *1570:B *1754:A 5.68681e-05
6 *1570:B *1755:A1 0
7 *1570:B *1756:A 4.87498e-05
8 *1754:B *1570:B 0
*RES
1 *2320:Z *1570:B 46.3929 
*END

*D_NET *900 0.000699854
*CONN
*I *1617:B I *D XOR2_X1
*I *2321:Z O *D LOGIC1_X1
*CAP
1 *1617:B 0.000148445
2 *2321:Z 0.000148445
3 *1617:B *1618:A 0.000146647
4 *1617:B *1664:A1 0.000210531
5 *1617:B *1855:B 6.32461e-06
6 *1664:B1 *1617:B 1.02238e-05
7 *1664:B2 *1617:B 0
8 *1671:A1 *1617:B 0
9 *1671:A4 *1617:B 0
10 *542:12 *1617:B 2.45434e-05
11 *751:8 *1617:B 4.69508e-06
*RES
1 *2321:Z *1617:B 42.8929 
*END

*D_NET *901 0.000444679
*CONN
*I *1767:B2 I *D OAI21_X1
*I *2322:Z O *D LOGIC1_X1
*CAP
1 *1767:B2 0.000168834
2 *2322:Z 0.000168834
3 *1767:B2 *1920:A 3.18842e-05
4 *1767:B2 *2235:CK 0
5 *1767:B2 *1229:21 0
6 *1767:B2 *1229:36 0
7 *1767:B2 *1230:19 6.83382e-05
8 *1921:B2 *1767:B2 0
9 *2235:D *1767:B2 7.16188e-07
10 *61:14 *1767:B2 6.07323e-06
*RES
1 *2322:Z *1767:B2 41.6429 
*END

*D_NET *902 0.000428888
*CONN
*I *1925:B2 I *D AOI221_X1
*I *2323:Z O *D LOGIC1_X1
*CAP
1 *1925:B2 0.000164157
2 *2323:Z 0.000164157
3 *1925:B2 *2169:B 3.43034e-05
4 *1841:B2 *1925:B2 5.96249e-05
5 *1925:A *1925:B2 1.68643e-06
6 *1925:B1 *1925:B2 2.39679e-06
7 *1925:C1 *1925:B2 2.56243e-06
*RES
1 *2323:Z *1925:B2 41.6429 
*END

*D_NET *903 0.000679876
*CONN
*I *1595:B I *D XOR2_X1
*I *2324:Z O *D LOGIC1_X1
*CAP
1 *1595:B 0.000105018
2 *2324:Z 0.000105018
3 *1595:B *1596:B 1.90574e-06
4 *1595:B *1603:B2 0.0001586
5 *1595:B *1269:20 0.000196799
6 *1598:B *1595:B 6.61334e-05
7 *516:37 *1595:B 1.39839e-06
8 *517:8 *1595:B 4.37715e-05
9 *521:12 *1595:B 1.23077e-06
*RES
1 *2324:Z *1595:B 40.75 
*END

*D_NET *904 0.000578712
*CONN
*I *2170:B I *D XOR2_X1
*I *2325:Z O *D LOGIC1_X1
*CAP
1 *2170:B 0.000187
2 *2325:Z 0.000187
3 *2170:B *2169:B 5.20211e-05
4 *1845:A1 *2170:B 0
5 *1845:A3 *2170:B 0
6 *2171:A2 *2170:B 3.89008e-06
7 *286:12 *2170:B 0.000145608
8 *516:37 *2170:B 0
9 *520:49 *2170:B 0
10 *524:159 *2170:B 3.19164e-06
11 *530:6 *2170:B 0
*RES
1 *2325:Z *2170:B 43.5714 
*END

*D_NET *905 0.000446167
*CONN
*I *1923:A1 I *D NAND2_X1
*I *2326:Z O *D LOGIC1_X1
*CAP
1 *1923:A1 0.000106613
2 *2326:Z 0.000106613
3 *1923:A1 *1834:A 8.70503e-06
4 *1923:A1 *1877:C1 9.57501e-05
5 *1923:A1 *2172:A 9.93368e-06
6 *1923:A1 *1421:14 2.52965e-06
7 *1844:B2 *1923:A1 0
8 *1923:A2 *1923:A1 3.09143e-06
9 *751:71 *1923:A1 0.000112931
*RES
1 *2326:Z *1923:A1 36.6072 
*END

*D_NET *906 0.000530448
*CONN
*I *1599:B I *D XOR2_X1
*I *2327:Z O *D LOGIC1_X1
*CAP
1 *1599:B 0.00018153
2 *2327:Z 0.00018153
3 *1599:B *1599:A 8.22137e-05
4 *1599:B *2237:CK 0
5 *1599:B *1269:24 0
6 *1597:A1 *1599:B 0
7 *1598:B *1599:B 2.36764e-05
8 *1602:B *1599:B 6.1498e-05
9 *516:37 *1599:B 0
*RES
1 *2327:Z *1599:B 43.3214 
*END

*D_NET *907 0.000449704
*CONN
*I *1600:B I *D XOR2_X1
*I *2328:Z O *D LOGIC1_X1
*CAP
1 *1600:B 0.000190677
2 *2328:Z 0.000190677
3 *1600:B *1596:B 1.16685e-05
4 *1600:B *1600:A 2.86077e-05
5 *1600:B *1269:24 0
6 *520:49 *1600:B 2.80727e-05
*RES
1 *2328:Z *1600:B 41.3214 
*END

*D_NET *908 0.00066095
*CONN
*I *2130:A I *D OAI21_X1
*I *2329:Z O *D LOGIC1_X1
*CAP
1 *2130:A 0.000133035
2 *2329:Z 0.000133035
3 *2130:A *1837:B2 0
4 *1611:A2 *2130:A 5.48932e-05
5 *2131:B1 *2130:A 0
6 *2132:A2 *2130:A 0.000325952
7 *287:25 *2130:A 4.80515e-06
8 *530:169 *2130:A 9.22998e-06
*RES
1 *2329:Z *2130:A 41.2857 
*END

*D_NET *909 0.000547291
*CONN
*I *1833:A I *D XNOR2_X1
*I *2330:Z O *D LOGIC1_X1
*CAP
1 *1833:A 0.00022414
2 *2330:Z 0.00022414
3 *1833:A *1847:B2 0
4 *1835:C1 *1833:A 4.21902e-05
5 *1882:A2 *1833:A 2.30117e-05
6 *530:184 *1833:A 0
7 *751:44 *1833:A 2.90169e-05
8 *762:6 *1833:A 4.79202e-06
*RES
1 *2330:Z *1833:A 44.1072 
*END

*D_NET *910 0.0005144
*CONN
*I *1834:A I *D XNOR2_X1
*I *2331:Z O *D LOGIC1_X1
*CAP
1 *1834:A 0.000117722
2 *2331:Z 0.000117722
3 *1834:A *1837:A1 7.19036e-06
4 *1834:A *2172:A 6.84316e-05
5 *1834:A *1421:14 5.40507e-05
6 *1835:C2 *1834:A 1.91498e-06
7 *1923:A1 *1834:A 8.70503e-06
8 *1923:A2 *1834:A 7.09666e-06
9 *287:44 *1834:A 4.97191e-06
10 *287:48 *1834:A 0.000126001
11 *751:71 *1834:A 5.9479e-07
*RES
1 *2331:Z *1834:A 38.1429 
*END

*D_NET *911 0.00039463
*CONN
*I *1603:B2 I *D AOI22_X1
*I *2332:Z O *D LOGIC1_X1
*CAP
1 *1603:B2 5.53791e-05
2 *2332:Z 5.53791e-05
3 *1603:B2 *1596:B 2.2331e-05
4 *1603:B2 *1606:A 5.7133e-05
5 *1603:B2 *1269:12 1.0024e-05
6 *1595:B *1603:B2 0.0001586
7 *517:8 *1603:B2 3.57834e-05
*RES
1 *2332:Z *1603:B2 33.1429 
*END

*D_NET *912 0.000461025
*CONN
*I *1602:A I *D XNOR2_X1
*I *2333:Z O *D LOGIC1_X1
*CAP
1 *1602:A 0.000196122
2 *2333:Z 0.000196122
3 *1602:A *1598:A 2.31646e-05
4 *1602:A *1607:A 0
5 *1602:A *1988:B 0
6 *1602:A *2006:B2 3.83909e-06
7 *1602:A *2237:CK 0
8 *1602:B *1602:A 7.72792e-06
9 *1991:A *1602:A 6.48216e-07
10 *2005:A2 *1602:A 1.08036e-06
11 *2006:A *1602:A 3.23209e-05
*RES
1 *2333:Z *1602:A 30.75 
*END

*D_NET *913 0.000571193
*CONN
*I *1603:A1 I *D AOI22_X1
*I *2334:Z O *D LOGIC1_X1
*CAP
1 *1603:A1 0.000183391
2 *2334:Z 0.000183391
3 *1603:A1 *1606:A 3.38181e-05
4 *1603:A1 *1993:A 0
5 *1603:A2 *1603:A1 2.75346e-06
6 *1608:A2 *1603:A1 8.77075e-05
7 *1608:B1 *1603:A1 6.82839e-05
8 *1609:A1 *1603:A1 1.87369e-06
9 *517:8 *1603:A1 6.32202e-06
10 *521:12 *1603:A1 3.65322e-06
*RES
1 *2334:Z *1603:A1 44.0714 
*END

*D_NET *914 0.000343569
*CONN
*I *1598:A I *D XNOR2_X1
*I *2335:Z O *D LOGIC1_X1
*CAP
1 *1598:A 0.000147009
2 *2335:Z 0.000147009
3 *1598:A *1607:A 0
4 *1598:B *1598:A 2.32935e-05
5 *1602:A *1598:A 2.31646e-05
6 *1602:B *1598:A 3.09411e-06
*RES
1 *2335:Z *1598:A 26.1071 
*END

*D_NET *915 0.000579922
*CONN
*I *1615:A I *D XOR2_X1
*I *2336:Z O *D LOGIC1_X1
*CAP
1 *1615:A 0.00016987
2 *2336:Z 0.00016987
3 *1615:A *1910:A 0
4 *1615:A *1421:14 0
5 *1616:A2 *1615:A 1.85634e-05
6 *60:10 *1615:A 1.34851e-06
7 *60:12 *1615:A 6.48231e-06
8 *60:18 *1615:A 1.62643e-06
9 *204:12 *1615:A 0.00021216
*RES
1 *2336:Z *1615:A 42.4643 
*END

*D_NET *916 0.000279245
*CONN
*I *1593:B2 I *D AOI21_X1
*I *2337:Z O *D LOGIC1_X1
*CAP
1 *1593:B2 0.000130738
2 *2337:Z 0.000130738
3 *1593:B2 *1594:B2 0
4 *1593:B2 *1421:69 0
5 *1593:A *1593:B2 1.88334e-06
6 *1836:A1 *1593:B2 0
7 *1923:A2 *1593:B2 4.04964e-06
8 *287:65 *1593:B2 1.1836e-05
*RES
1 *2337:Z *1593:B2 35.1786 
*END

*D_NET *917 0.00051434
*CONN
*I *2172:A I *D XOR2_X1
*I *2338:Z O *D LOGIC1_X1
*CAP
1 *2172:A 0.000156522
2 *2338:Z 0.000156522
3 *2172:A *1102:89 0.000105896
4 *2172:A *1102:103 3.22796e-06
5 *2172:A *1421:10 8.75903e-06
6 *2172:A *1421:69 5.04693e-06
7 *1834:A *2172:A 6.84316e-05
8 *1836:A4 *2172:A 0
9 *1839:B2 *2172:A 0
10 *1923:A1 *2172:A 9.93368e-06
11 *95:151 *2172:A 0
12 *751:71 *2172:A 0
*RES
1 *2338:Z *2172:A 41.6786 
*END

*D_NET *918 0.00033582
*CONN
*I *1863:B I *D MUX2_X1
*I *2339:Z O *D LOGIC1_X1
*CAP
1 *1863:B 0.000161856
2 *2339:Z 0.000161856
3 *1855:S *1863:B 0
4 *1864:B *1863:B 1.21072e-05
*RES
1 *2339:Z *1863:B 38.5714 
*END

*D_NET *919 0.000605695
*CONN
*I *1863:A I *D MUX2_X1
*I *2340:Z O *D LOGIC1_X1
*CAP
1 *1863:A 0.00011592
2 *2340:Z 0.00011592
3 *1863:A *1864:A 0
4 *1864:B *1863:A 6.81795e-05
5 *1865:S *1863:A 5.63459e-05
6 *1868:A *1863:A 0.000210333
7 *693:8 *1863:A 0
8 *766:223 *1863:A 0
9 *766:227 *1863:A 7.72792e-06
10 *785:14 *1863:A 3.1269e-05
*RES
1 *2340:Z *1863:A 40 
*END

*D_NET *920 0.000222504
*CONN
*I *2163:B2 I *D OAI21_X1
*I *2341:Z O *D LOGIC1_X1
*CAP
1 *2163:B2 8.62083e-05
2 *2341:Z 8.62083e-05
3 *2163:B2 *2161:A 6.06867e-06
4 *2163:A *2163:B2 1.27666e-06
5 *2164:A1 *2163:B2 5.31873e-06
6 *2164:B2 *2163:B2 3.74237e-05
*RES
1 *2341:Z *2163:B2 29.4286 
*END

*D_NET *921 0.000501778
*CONN
*I *1880:A I *D MUX2_X1
*I *2342:Z O *D LOGIC1_X1
*CAP
1 *1880:A 0.000152806
2 *2342:Z 0.000152806
3 *1880:A busy 2.27161e-05
4 *1880:A *1880:B 2.61827e-06
5 *1880:A *1232:8 3.25065e-06
6 *1880:A *1258:113 3.37198e-05
7 *1880:A *1420:62 0
8 *1880:S *1880:A 7.72792e-06
9 *1881:B *1880:A 5.06772e-05
10 *2233:D *1880:A 0
11 *2233:RN *1880:A 5.39184e-05
12 *532:23 *1880:A 2.15368e-05
*RES
1 *2342:Z *1880:A 40.5357 
*END

*D_NET *922 0.000730105
*CONN
*I *1837:A1 I *D AOI22_X1
*I *2343:Z O *D LOGIC1_X1
*CAP
1 *1837:A1 0.000148987
2 *2343:Z 0.000148987
3 *1837:A1 *1922:A1 0
4 *1837:A1 *1421:14 7.19036e-06
5 *1834:A *1837:A1 7.19036e-06
6 *1839:B2 *1837:A1 0.000275306
7 *751:71 *1837:A1 0.000142443
*RES
1 *2343:Z *1837:A1 42.7143 
*END

*D_NET *923 0.000448193
*CONN
*I *1838:A1 I *D NAND2_X1
*I *2344:Z O *D LOGIC1_X1
*CAP
1 *1838:A1 0.000213572
2 *2344:Z 0.000213572
3 *1838:A1 *1922:B2 0
4 *1838:A1 *1420:83 2.02052e-05
5 *1838:A2 *1838:A1 8.43215e-07
6 *2751:A *1838:A1 0
7 *287:44 *1838:A1 0
8 *532:36 *1838:A1 0
*RES
1 *2344:Z *1838:A1 43.3214 
*END

*D_NET *924 0.000454592
*CONN
*I *1769:A I *D XOR2_X1
*I *2345:Z O *D LOGIC1_X1
*CAP
1 *1769:A 0.00018043
2 *2345:Z 0.00018043
3 *1769:A *1770:A2 0
4 *1769:A *2235:CK 8.93279e-05
5 *1769:A *1258:13 0
6 *1769:A *1258:27 4.40371e-06
7 *2234:RN *1769:A 0
*RES
1 *2345:Z *1769:A 41.8214 
*END

*D_NET *925 0.000536103
*CONN
*I *2030:A I *D XOR2_X1
*I *2354:Z O *D LOGIC0_X1
*CAP
1 *2030:A 0.000122634
2 *2354:Z 0.000122634
3 *2030:A *2029:A 0.00012095
4 *2030:A *2029:B 1.02238e-05
5 *2029:S *2030:A 1.24752e-05
6 *2030:B *2030:A 0.000147187
7 *2146:B2 *2030:A 0
*RES
1 *2354:Z *2030:A 38.4643 
*END

*D_NET *926 0.000537689
*CONN
*I *1934:A I *D XOR2_X1
*I *2355:Z O *D LOGIC0_X1
*CAP
1 *1934:A 0.000198604
2 *2355:Z 0.000198604
3 *1934:A *2252:CK 0
4 *2118:A *1934:A 0
5 *95:81 *1934:A 1.92814e-05
6 *99:134 *1934:A 0.0001212
*RES
1 *2355:Z *1934:A 43.3214 
*END

*D_NET *927 0.000610685
*CONN
*I *1939:A I *D XOR2_X1
*I *2356:Z O *D LOGIC0_X1
*CAP
1 *1939:A 7.70234e-05
2 *2356:Z 7.70234e-05
3 *1939:A *1938:A 0.000121739
4 *1939:A *1938:B 0.000173718
5 *1939:A *1945:B 1.34524e-05
6 *1939:B *1939:A 0.000147729
*RES
1 *2356:Z *1939:A 37.2143 
*END

*D_NET *928 0.000625384
*CONN
*I *1946:A I *D XOR2_X1
*I *2357:Z O *D LOGIC0_X1
*CAP
1 *1946:A 0.000127302
2 *2357:Z 0.000127302
3 *1946:A *1938:A 0.000185855
4 *1946:A *1945:A 0
5 *1946:A *1955:A 1.32732e-05
6 *1946:A *1955:B 3.34038e-05
7 *1946:B *1946:A 5.67661e-05
8 *99:88 *1946:A 3.69953e-05
9 *99:98 *1946:A 7.16188e-07
10 *122:8 *1946:A 4.37715e-05
*RES
1 *2357:Z *1946:A 41.6429 
*END

*D_NET *929 0.000584785
*CONN
*I *1954:A I *D XOR2_X1
*I *2358:Z O *D LOGIC0_X1
*CAP
1 *1954:A 5.55129e-05
2 *2358:Z 5.55129e-05
3 *1954:A *1953:A 5.19942e-05
4 *1954:A *1953:B 1.53357e-05
5 *1954:A *1958:B 7.9406e-06
6 *1954:A *2022:B2 9.57501e-05
7 *1954:B *1954:A 0.000108745
8 *1958:S *1954:A 0.000121163
9 *99:98 *1954:A 7.28304e-05
*RES
1 *2358:Z *1954:A 35.8572 
*END

*D_NET *930 0.00041127
*CONN
*I *1959:A I *D XOR2_X1
*I *2359:Z O *D LOGIC0_X1
*CAP
1 *1959:A 0.000174295
2 *2359:Z 0.000174295
3 *1959:A *1953:A 1.78767e-05
4 *1959:A *1958:A 6.03476e-06
5 *1959:A *1958:B 2.90546e-05
6 *1959:A *1962:A 0
7 *126:10 *1959:A 9.71417e-06
*RES
1 *2359:Z *1959:A 41.1429 
*END

*D_NET *931 0.000310577
*CONN
*I *1964:A I *D XOR2_X1
*I *2360:Z O *D LOGIC0_X1
*CAP
1 *1964:A 8.43844e-05
2 *2360:Z 8.43844e-05
3 *1964:A *1963:A 8.04349e-05
4 *1964:A *1963:B 5.39659e-06
5 *1964:B *1964:A 5.59765e-05
*RES
1 *2360:Z *1964:A 31.1071 
*END

*D_NET *932 0.000358489
*CONN
*I *1971:A I *D XOR2_X1
*I *2361:Z O *D LOGIC0_X1
*CAP
1 *1971:A 0.000179244
2 *2361:Z 0.000179244
3 *1971:A *1970:A 0
4 *1971:A *1970:B 0
5 *766:28 *1971:A 0
*RES
1 *2361:Z *1971:A 37.7857 
*END

*D_NET *933 0.000120714
*CONN
*I *1979:A I *D XOR2_X1
*I *2362:Z O *D LOGIC0_X1
*CAP
1 *1979:A 3.50391e-05
2 *2362:Z 3.50391e-05
3 *1979:B *1979:A 0
4 *766:65 *1979:A 5.06354e-05
*RES
1 *2362:Z *1979:A 14.75 
*END

*D_NET *934 0.000303419
*CONN
*I *1984:A I *D XOR2_X1
*I *2363:Z O *D LOGIC0_X1
*CAP
1 *1984:A 0.000148633
2 *2363:Z 0.000148633
3 *1984:A *1983:B 6.1525e-06
*RES
1 *2363:Z *1984:A 35.0357 
*END

*D_NET *935 0.000480324
*CONN
*I *1989:A I *D XOR2_X1
*I *2364:Z O *D LOGIC0_X1
*CAP
1 *1989:A 0.000195717
2 *2364:Z 0.000195717
3 *1989:A *1988:A 0
4 *1989:A *1988:B 4.2108e-05
5 *1989:A *2006:B2 2.32054e-05
6 *2086:A2 *1989:A 0
7 *2087:A1 *1989:A 4.40066e-06
8 *171:14 *1989:A 1.55226e-05
9 *174:10 *1989:A 3.65322e-06
10 *530:6 *1989:A 0
*RES
1 *2364:Z *1989:A 43.3214 
*END

*D_NET *936 0.000448789
*CONN
*I *1994:A I *D XOR2_X1
*I *2365:Z O *D LOGIC0_X1
*CAP
1 *1994:A 0.000175131
2 *2365:Z 0.000175131
3 *1994:A *1993:A 0
4 *1993:S *1994:A 4.78905e-05
5 *2094:A *1994:A 5.06354e-05
*RES
1 *2365:Z *1994:A 41.9643 
*END

*D_NET *937 0.000341278
*CONN
*I *1850:A I *D XOR2_X1
*I *2366:Z O *D LOGIC0_X1
*CAP
1 *1850:A 0.000151818
2 *2366:Z 0.000151818
3 *1850:A *1849:A 0
4 *1849:S *1850:A 1.40357e-05
5 *1852:S *1850:A 5.71509e-07
6 *2001:A2 *1850:A 0
7 *2002:A *1850:A 0
8 *766:176 *1850:A 2.0802e-06
9 *768:12 *1850:A 2.09547e-05
*RES
1 *2366:Z *1850:A 36.2143 
*END

*D_NET *938 0.000630721
*CONN
*I *1856:A I *D XOR2_X2
*I *2367:Z O *D LOGIC0_X1
*CAP
1 *1856:A 0.000286035
2 *2367:Z 0.000286035
3 *1856:A *1617:A 0
4 *1856:A *1760:B2 4.4683e-06
5 *1856:A *1762:A 5.41831e-05
6 *1856:A *1763:A1 0
7 *1856:A *1860:A1 0
8 *1763:A2 *1856:A 0
9 *1856:B *1856:A 0
10 *774:10 *1856:A 0
*RES
1 *2367:Z *1856:A 38.4643 
*END

*D_NET *939 0.000469561
*CONN
*I *1864:A I *D XOR2_X1
*I *2368:Z O *D LOGIC0_X1
*CAP
1 *1864:A 0.000121075
2 *2368:Z 0.000121075
3 *1864:A *1857:B 0
4 *1864:A *1868:B2 2.04476e-05
5 *1863:A *1864:A 0
6 *1866:A2 *1864:A 0
7 *1867:B *1864:A 0
8 *1869:B2 *1864:A 0.000185923
9 *766:223 *1864:A 8.43215e-07
10 *785:14 *1864:A 2.01974e-05
*RES
1 *2368:Z *1864:A 37.2143 
*END

*D_NET *940 0.000360471
*CONN
*I *1909:A I *D XNOR2_X1
*I *2369:Z O *D LOGIC0_X1
*CAP
1 *1909:A 0.000157264
2 *2369:Z 0.000157264
3 *1910:B *1909:A 2.54672e-06
4 *79:16 *1909:A 4.33964e-05
5 *95:177 *1909:A 0
6 *98:84 *1909:A 0
*RES
1 *2369:Z *1909:A 27.3571 
*END

*D_NET *941 0.000487275
*CONN
*I *1919:C1 I *D AOI211_X1
*I *2370:Z O *D LOGIC0_X1
*CAP
1 *1919:C1 0.000215485
2 *2370:Z 0.000215485
3 *1919:C1 *1910:A 0
4 *1910:B *1919:C1 0
5 *1910:S *1919:C1 0
6 *1911:B2 *1919:C1 9.9032e-06
7 *1919:C2 *1919:C1 4.34589e-05
8 *98:84 *1919:C1 2.94345e-06
9 *762:50 *1919:C1 0
*RES
1 *2370:Z *1919:C1 43.8214 
*END

*D_NET *942 0.000339313
*CONN
*I *1911:C2 I *D AOI221_X1
*I *2371:Z O *D LOGIC0_X1
*CAP
1 *1911:C2 0.000114229
2 *2371:Z 0.000114229
3 *1911:A *1911:C2 5.13479e-05
4 *1921:B1 *1911:C2 1.52083e-06
5 *762:50 *1911:C2 5.79858e-05
*RES
1 *2371:Z *1911:C2 35.1786 
*END

*D_NET *943 0.000539329
*CONN
*I *1929:A1 I *D NAND2_X1
*I *2372:Z O *D LOGIC0_X1
*CAP
1 *1929:A1 0.000160603
2 *2372:Z 0.000160603
3 *1929:A1 *1240:12 4.37715e-05
4 *1929:A2 *1929:A1 0.000170803
5 *2256:D *1929:A1 3.54782e-06
6 *61:165 *1929:A1 0
*RES
1 *2372:Z *1929:A1 40.6072 
*END

*D_NET *944 0.000595764
*CONN
*I *2041:A1 I *D NAND2_X1
*I *2373:Z O *D LOGIC0_X1
*CAP
1 *2041:A1 0.000204333
2 *2373:Z 0.000204333
3 *2041:A1 *2253:CK 2.7327e-05
4 *2046:B1 *2041:A1 1.20226e-05
5 *2046:B2 *2041:A1 1.47955e-05
6 *95:83 *2041:A1 8.43215e-07
7 *511:95 *2041:A1 1.59485e-05
8 *511:106 *2041:A1 0.000116162
9 *524:210 *2041:A1 0
10 *524:216 *2041:A1 0
*RES
1 *2373:Z *2041:A1 44.8214 
*END

*D_NET *945 0.000558996
*CONN
*I *2047:A1 I *D NAND2_X1
*I *2374:Z O *D LOGIC0_X1
*CAP
1 *2047:A1 0.000183097
2 *2374:Z 0.000183097
3 *2025:B1 *2047:A1 3.96416e-05
4 *2047:A2 *2047:A1 7.16188e-07
5 *2050:A *2047:A1 0
6 *524:10 *2047:A1 0.000139208
7 *524:210 *2047:A1 1.32348e-05
*RES
1 *2374:Z *2047:A1 44.1429 
*END

*D_NET *946 0.000618829
*CONN
*I *2052:A1 I *D NAND2_X1
*I *2375:Z O *D LOGIC0_X1
*CAP
1 *2052:A1 0.000125602
2 *2375:Z 0.000125602
3 *2052:A1 *1933:A 0.000287686
4 *95:81 *2052:A1 7.45042e-05
5 *99:12 *2052:A1 5.2192e-06
6 *99:14 *2052:A1 2.16072e-07
7 *460:10 *2052:A1 0
*RES
1 *2375:Z *2052:A1 41.1429 
*END

*D_NET *947 0.000328013
*CONN
*I *2059:A1 I *D NAND2_X1
*I *2376:Z O *D LOGIC0_X1
*CAP
1 *2059:A1 0.000164007
2 *2376:Z 0.000164007
3 *2059:A1 *1519:B2 0
4 *524:41 *2059:A1 0
*RES
1 *2376:Z *2059:A1 37.8929 
*END

*D_NET *948 0.000667166
*CONN
*I *2064:A1 I *D NAND2_X1
*I *2377:Z O *D LOGIC0_X1
*CAP
1 *2064:A1 0.000143799
2 *2377:Z 0.000143799
3 *2064:A1 *2062:B2 0
4 *2062:A *2064:A1 0.000180346
5 *2069:B1 *2064:A1 0
6 *2070:A2 *2064:A1 8.43215e-07
7 *182:12 *2064:A1 0
8 *524:45 *2064:A1 0
9 *530:66 *2064:A1 0.000198378
*RES
1 *2377:Z *2064:A1 42.3572 
*END

*D_NET *949 0.000347353
*CONN
*I *2070:A1 I *D NAND2_X1
*I *2378:Z O *D LOGIC0_X1
*CAP
1 *2070:A1 0.000163704
2 *2378:Z 0.000163704
3 *2070:A2 *2070:A1 1.99453e-05
4 *2074:B1 *2070:A1 0
*RES
1 *2378:Z *2070:A1 38.5714 
*END

*D_NET *950 0.00064201
*CONN
*I *2075:A1 I *D NAND2_X1
*I *2379:Z O *D LOGIC0_X1
*CAP
1 *2075:A1 0.000118471
2 *2379:Z 0.000118471
3 *2075:A1 *1581:A2 0.000107955
4 *2075:A1 *1972:A 1.52083e-06
5 *2075:A1 *1975:A1 4.24423e-05
6 *2122:A *2075:A1 0.000107663
7 *2248:D *2075:A1 0
8 *61:79 *2075:A1 0.000132861
9 *95:22 *2075:A1 8.43215e-07
10 *95:28 *2075:A1 3.09143e-06
11 *530:60 *2075:A1 2.52965e-06
12 *766:18 *2075:A1 5.20238e-07
13 *766:20 *2075:A1 5.64109e-06
*RES
1 *2379:Z *2075:A1 39.3214 
*END

*D_NET *951 0.000376212
*CONN
*I *2081:A1 I *D NAND2_X1
*I *2380:Z O *D LOGIC0_X1
*CAP
1 *2081:A1 0.000185707
2 *2380:Z 0.000185707
3 *2081:A1 *1547:A 0
4 *2081:A1 *1130:18 0
5 *1549:A2 *2081:A1 0
6 *61:65 *2081:A1 4.79658e-06
7 *466:8 *2081:A1 0
8 *467:8 *2081:A1 0
*RES
1 *2380:Z *2081:A1 39.7857 
*END

*D_NET *952 0.000492782
*CONN
*I *2086:A1 I *D NAND2_X1
*I *2381:Z O *D LOGIC0_X1
*CAP
1 *2086:A1 8.1782e-05
2 *2381:Z 8.1782e-05
3 *2086:A1 *2090:B2 1.72405e-05
4 *2086:A2 *2086:A1 0.000288299
5 *2091:B1 *2086:A1 2.36789e-05
*RES
1 *2381:Z *2086:A1 35.1786 
*END

*D_NET *953 0.000579524
*CONN
*I *2092:A1 I *D NAND2_X1
*I *2382:Z O *D LOGIC0_X1
*CAP
1 *2092:A1 0.000153962
2 *2382:Z 0.000153962
3 *2092:A1 *1995:B 4.56751e-05
4 *2092:A2 *2092:A1 8.53017e-06
5 *95:267 *2092:A1 0.000170919
6 *524:266 *2092:A1 3.50317e-05
7 *766:103 *2092:A1 9.57492e-07
8 *766:146 *2092:A1 0
9 *766:163 *2092:A1 1.04871e-05
*RES
1 *2382:Z *2092:A1 41.8214 
*END

*D_NET *954 0.000344255
*CONN
*I *2097:A1 I *D NAND2_X1
*I *2383:Z O *D LOGIC0_X1
*CAP
1 *2097:A1 0.000110334
2 *2383:Z 0.000110334
3 *494:12 *2097:A1 0.000123588
*RES
1 *2383:Z *2097:A1 36.5357 
*END

*D_NET *955 0.000774241
*CONN
*I *2103:A1 I *D NAND2_X1
*I *2384:Z O *D LOGIC0_X1
*CAP
1 *2103:A1 0.000203486
2 *2384:Z 0.000203486
3 *2103:A1 *1571:A2 3.52448e-06
4 *2103:A1 *1327:14 3.89741e-05
5 *2003:B2 *2103:A1 1.11714e-05
6 *2106:A *2103:A1 3.35796e-05
7 *2106:B1 *2103:A1 2.25089e-06
8 *2127:A *2103:A1 4.93921e-05
9 *2243:D *2103:A1 0.000223578
10 *95:240 *2103:A1 3.58094e-06
11 *95:251 *2103:A1 1.21774e-06
12 *511:140 *2103:A1 0
*RES
1 *2384:Z *2103:A1 48.8214 
*END

*D_NET *956 0.000370287
*CONN
*I *2107:A1 I *D NAND2_X1
*I *2385:Z O *D LOGIC0_X1
*CAP
1 *2107:A1 0.000168774
2 *2385:Z 0.000168774
3 *2107:A1 *1421:84 2.14732e-06
4 *2242:D *2107:A1 3.05921e-05
*RES
1 *2385:Z *2107:A1 37.8929 
*END

*D_NET *957 0.000608497
*CONN
*I *2111:A1 I *D NAND2_X1
*I *2386:Z O *D LOGIC0_X1
*CAP
1 *2111:A1 0.000112188
2 *2386:Z 0.000112188
3 *2111:A1 *1234:16 4.29819e-05
4 *2109:B1 *2111:A1 8.00908e-05
5 *2113:B1 *2111:A1 0.000169508
6 *2241:D *2111:A1 9.15405e-05
7 *61:227 *2111:A1 0
8 *61:256 *2111:A1 0
*RES
1 *2386:Z *2111:A1 37.8929 
*END

*D_NET *958 0.000530287
*CONN
*I *1869:A I *D OAI21_X2
*I *2387:Z O *D LOGIC0_X1
*CAP
1 *1869:A 0.000236534
2 *2387:Z 0.000236534
3 *1908:B *1869:A 1.78661e-06
4 *1909:B *1869:A 0
5 *1919:B *1869:A 0
6 *98:84 *1869:A 5.54315e-05
7 *751:8 *1869:A 0
8 *751:10 *1869:A 0
*RES
1 *2387:Z *1869:A 44.75 
*END

*D_NET *959 0.00055615
*CONN
*I *1596:B I *D XOR2_X1
*I *2388:Z O *D LOGIC0_X1
*CAP
1 *1596:B 0.000166336
2 *2388:Z 0.000166336
3 *1596:B *1606:A 2.24327e-06
4 *1596:B *1926:A 0
5 *1596:B *1269:12 6.86795e-05
6 *1596:B *1269:20 7.97485e-05
7 *1596:B *1269:24 3.66854e-05
8 *1595:B *1596:B 1.90574e-06
9 *1598:B *1596:B 2.16072e-07
10 *1600:B *1596:B 1.16685e-05
11 *1603:B2 *1596:B 2.2331e-05
*RES
1 *2388:Z *1596:B 43.5 
*END

*D_NET *960 0.000565344
*CONN
*I *1922:A1 I *D AOI22_X1
*I *2389:Z O *D LOGIC0_X1
*CAP
1 *1922:A1 0.000204779
2 *2389:Z 0.000204779
3 *1837:A1 *1922:A1 0
4 *1922:A2 *1922:A1 2.17097e-05
5 *1922:B1 *1922:A1 5.47207e-05
6 *530:169 *1922:A1 7.9355e-05
7 *751:71 *1922:A1 0
*RES
1 *2389:Z *1922:A1 45.9286 
*END

*D_NET *961 0.000492773
*CONN
*I *2169:B I *D XOR2_X1
*I *2390:Z O *D LOGIC0_X1
*CAP
1 *2169:B 0.000203224
2 *2390:Z 0.000203224
3 *1841:B2 *2169:B 0
4 *1925:B2 *2169:B 3.43034e-05
5 *2170:B *2169:B 5.20211e-05
*RES
1 *2390:Z *2169:B 43.8572 
*END

*D_NET *962 0.000547707
*CONN
*I *1922:B2 I *D AOI22_X1
*I *2391:Z O *D LOGIC0_X1
*CAP
1 *1922:B2 0.000107963
2 *2391:Z 0.000107963
3 *1838:A1 *1922:B2 0
4 *287:29 *1922:B2 0.000146397
5 *287:44 *1922:B2 0.000185383
*RES
1 *2391:Z *1922:B2 37.2143 
*END

*D_NET *963 0.000619352
*CONN
*I *1877:C1 I *D AOI211_X1
*I *2392:Z O *D LOGIC0_X1
*CAP
1 *1877:C1 0.000102927
2 *2392:Z 0.000102927
3 *1877:C1 *1847:B2 0
4 *1923:A1 *1877:C1 9.57501e-05
5 *95:151 *1877:C1 0
6 *751:71 *1877:C1 0.00012095
7 *762:10 *1877:C1 0.000196799
*RES
1 *2392:Z *1877:C1 37.8929 
*END

*D_NET *964 0.000405876
*CONN
*I *1914:B2 I *D OAI21_X1
*I *2393:Z O *D LOGIC0_X1
*CAP
1 *1914:B2 0.000196944
2 *2393:Z 0.000196944
3 *1835:B *1914:B2 7.19234e-06
4 *1882:A2 *1914:B2 0
5 *95:162 *1914:B2 4.79658e-06
*RES
1 *2393:Z *1914:B2 41.1429 
*END

*D_NET *965 0.00038057
*CONN
*I *1910:A I *D MUX2_X1
*I *2394:Z O *D LOGIC0_X1
*CAP
1 *1910:A 0.00014072
2 *2394:Z 0.00014072
3 *1615:A *1910:A 0
4 *1615:B *1910:A 6.15717e-05
5 *1910:S *1910:A 1.77822e-05
6 *1919:C1 *1910:A 0
7 *95:177 *1910:A 1.9777e-05
*RES
1 *2394:Z *1910:A 37.8929 
*END

*D_NET *966 0.000335855
*CONN
*I *2131:B2 I *D AOI22_X1
*I *2395:Z O *D LOGIC0_X1
*CAP
1 *2131:B2 0.000167928
2 *2395:Z 0.000167928
3 *2131:B2 *1880:B 0
4 *2131:B2 *1258:113 0
5 *1881:S *2131:B2 0
6 *2132:A2 *2131:B2 0
7 *529:18 *2131:B2 0
*RES
1 *2395:Z *2131:B2 37.8929 
*END

*D_NET *967 0.00081852
*CONN
*I *2039:B2 I *D OAI21_X1
*I *2396:Z O *D LOGIC0_X1
*CAP
1 *2039:B2 0.000101705
2 *2396:Z 0.000101705
3 *2039:B2 *1541:A 0.000107955
4 *2039:B2 *2252:CK 0.000109607
5 *2039:B2 *1419:58 0.000192716
6 *1541:B *2039:B2 0.000196714
7 *766:10 *2039:B2 8.1183e-06
*RES
1 *2396:Z *2039:B2 41.1429 
*END

*D_NET *968 0.000423715
*CONN
*I *2045:B2 I *D OAI21_X1
*I *2397:Z O *D LOGIC0_X1
*CAP
1 *2045:B2 0.00017762
2 *2397:Z 0.00017762
3 *2045:B2 *1535:A1 0
4 *1535:A2 *2045:B2 0
5 *1540:C2 *2045:B2 0
6 *2045:A *2045:B2 2.4656e-05
7 *2047:A2 *2045:B2 7.19036e-06
8 *2050:A *2045:B2 3.02372e-05
9 *435:10 *2045:B2 0
10 *437:8 *2045:B2 2.30746e-06
11 *524:210 *2045:B2 1.68643e-06
12 *524:216 *2045:B2 2.39679e-06
*RES
1 *2397:Z *2045:B2 38.6429 
*END

*D_NET *969 0.000697221
*CONN
*I *2050:B2 I *D OAI21_X1
*I *2398:Z O *D LOGIC0_X1
*CAP
1 *2050:B2 0.000126936
2 *2398:Z 0.000126936
3 *2050:B2 *1947:A 0
4 *1513:B *2050:B2 0.000113598
5 *1537:A1 *2050:B2 0
6 *1537:A2 *2050:B2 0
7 *1538:B1 *2050:B2 0
8 *432:8 *2050:B2 5.39659e-06
9 *524:31 *2050:B2 0.000324354
*RES
1 *2398:Z *2050:B2 42.4643 
*END

*D_NET *970 0.000450313
*CONN
*I *2057:B2 I *D OAI21_X1
*I *2399:Z O *D LOGIC0_X1
*CAP
1 *2057:B2 0.000162729
2 *2399:Z 0.000162729
3 *499:12 *2057:B2 3.23338e-05
4 *524:87 *2057:B2 2.39679e-06
5 *524:102 *2057:B2 3.23338e-05
6 *530:101 *2057:B2 5.77899e-05
*RES
1 *2399:Z *2057:B2 41.1429 
*END

*D_NET *971 0.000559468
*CONN
*I *2062:B2 I *D OAI21_X1
*I *2400:Z O *D LOGIC0_X1
*CAP
1 *2062:B2 0.000109594
2 *2400:Z 0.000109594
3 *2062:A *2062:B2 0
4 *2064:A1 *2062:B2 0
5 *524:45 *2062:B2 0.00034028
*RES
1 *2400:Z *2062:B2 37.8929 
*END

*D_NET *972 0.000327438
*CONN
*I *2068:B2 I *D OAI21_X1
*I *2401:Z O *D LOGIC0_X1
*CAP
1 *2068:B2 0.000163719
2 *2401:Z 0.000163719
3 *2068:B2 *2073:B2 0
4 *2073:A *2068:B2 0
5 *2073:B1 *2068:B2 0
*RES
1 *2401:Z *2068:B2 37.2143 
*END

*D_NET *973 0.000102115
*CONN
*I *2073:B2 I *D OAI21_X1
*I *2402:Z O *D LOGIC0_X1
*CAP
1 *2073:B2 5.10575e-05
2 *2402:Z 5.10575e-05
3 *2068:B2 *2073:B2 0
*RES
1 *2402:Z *2073:B2 25 
*END

*D_NET *974 0.000433118
*CONN
*I *2079:B2 I *D OAI21_X1
*I *2403:Z O *D LOGIC0_X1
*CAP
1 *2079:B2 0.00014444
2 *2403:Z 0.00014444
3 *147:8 *2079:B2 0.000144238
*RES
1 *2403:Z *2079:B2 39.9286 
*END

*D_NET *975 0.000427096
*CONN
*I *2084:B2 I *D OAI21_X1
*I *2404:Z O *D LOGIC0_X1
*CAP
1 *2084:B2 0.000111016
2 *2404:Z 0.000111016
3 *2084:B2 *1978:B 0
4 *2082:A1 *2084:B2 1.72426e-05
5 *2085:B1 *2084:B2 0.000107413
6 *149:8 *2084:B2 4.32298e-05
7 *511:56 *2084:B2 0
8 *511:69 *2084:B2 2.94533e-05
9 *524:112 *2084:B2 2.75346e-06
10 *524:116 *2084:B2 4.97191e-06
*RES
1 *2404:Z *2084:B2 35.25 
*END

*D_NET *976 0.000266093
*CONN
*I *2090:B2 I *D OAI21_X1
*I *2405:Z O *D LOGIC0_X1
*CAP
1 *2090:B2 0.000115678
2 *2405:Z 0.000115678
3 *2086:A1 *2090:B2 1.72405e-05
4 *2086:A2 *2090:B2 8.2076e-06
5 *2090:A *2090:B2 7.16188e-07
6 *2091:A *2090:B2 8.57214e-06
7 *2091:B1 *2090:B2 0
8 *2091:B2 *2090:B2 0
*RES
1 *2405:Z *2090:B2 32.2857 
*END

*D_NET *977 0.000571245
*CONN
*I *2095:B2 I *D OAI21_X1
*I *2406:Z O *D LOGIC0_X1
*CAP
1 *2095:B2 4.86142e-05
2 *2406:Z 4.86142e-05
3 *2095:B2 *1985:B 0.000211844
4 *2095:B2 *1990:A 0
5 *530:155 *2095:B2 0.000262173
*RES
1 *2406:Z *2095:B2 33.8214 
*END

*D_NET *978 0.000703966
*CONN
*I *2101:B2 I *D OAI21_X1
*I *2407:Z O *D LOGIC0_X1
*CAP
1 *2101:B2 8.40395e-05
2 *2407:Z 8.40395e-05
3 *2101:B2 *2244:CK 8.13411e-05
4 *2244:D *2101:B2 0.000248538
5 *494:18 *2101:B2 0
6 *524:260 *2101:B2 0.000129089
7 *524:266 *2101:B2 7.69187e-05
*RES
1 *2407:Z *2101:B2 38.5714 
*END

*D_NET *979 0.000580429
*CONN
*I *2105:B2 I *D OAI21_X1
*I *2408:Z O *D LOGIC0_X1
*CAP
1 *2105:B2 0.000138966
2 *2408:Z 0.000138966
3 *2105:B2 *1993:B 0.000302496
4 *1993:S *2105:B2 0
5 *766:176 *2105:B2 0
*RES
1 *2408:Z *2105:B2 39.1072 
*END

*D_NET *980 0.000583858
*CONN
*I *2109:B2 I *D OAI21_X1
*I *2409:Z O *D LOGIC0_X1
*CAP
1 *2109:B2 9.30964e-05
2 *2409:Z 9.30964e-05
3 *2109:A *2109:B2 0.000336559
4 *53:27 *2109:B2 6.11056e-05
*RES
1 *2409:Z *2109:B2 37.8929 
*END

*D_NET *981 0.000447537
*CONN
*I *2113:B2 I *D OAI21_X1
*I *2410:Z O *D LOGIC0_X1
*CAP
1 *2113:B2 0.000205091
2 *2410:Z 0.000205091
3 *1604:A1 *2113:B2 1.0968e-05
4 *2113:B1 *2113:B2 3.09411e-06
5 *95:131 *2113:B2 1.38656e-05
6 *95:230 *2113:B2 5.12024e-06
7 *511:195 *2113:B2 4.30618e-06
*RES
1 *2410:Z *2113:B2 43.3929 
*END

*D_NET *982 0.000586263
*CONN
*I *2133:A1 I *D NAND2_X1
*I *2411:Z O *D LOGIC0_X1
*CAP
1 *2133:A1 0.000261708
2 *2411:Z 0.000261708
3 *2133:A1 *2140:A 0
4 *1557:B *2133:A1 1.45805e-05
5 *2145:B *2133:A1 0
6 *2145:C1 *2133:A1 2.2331e-05
7 *2146:A *2133:A1 1.26998e-05
8 *2146:B2 *2133:A1 0
9 *61:153 *2133:A1 1.32348e-05
10 *511:130 *2133:A1 0
*RES
1 *2411:Z *2133:A1 48.25 
*END

*D_NET *983 0.000357001
*CONN
*I *1614:A I *D XNOR2_X1
*I *2412:Z O *D LOGIC0_X1
*CAP
1 *1614:A 0.000169989
2 *2412:Z 0.000169989
3 *1614:A *1421:14 0
4 *1924:A *1614:A 1.70233e-05
*RES
1 *2412:Z *1614:A 27.3571 
*END

*D_NET *984 0.000365207
*CONN
*I *1848:A I *D XNOR2_X2
*I *2413:Z O *D LOGIC0_X1
*CAP
1 *1848:A 0.000138588
2 *2413:Z 0.000138588
3 *1848:A *1542:A 2.26406e-05
4 *1848:A *1545:A2 1.0794e-06
5 *1848:A *1419:45 3.19243e-06
6 *1848:B *1848:A 7.19234e-06
7 *460:10 *1848:A 1.83315e-05
8 *766:10 *1848:A 2.95062e-05
9 *766:103 *1848:A 6.0887e-06
*RES
1 *2413:Z *1848:A 26.6786 
*END

*D_NET *985 0.000338954
*CONN
*I *2031:B I *D MUX2_X1
*I *2414:Z O *D LOGIC0_X1
*CAP
1 *2031:B 0.000156575
2 *2414:Z 0.000156575
3 *2031:B *2138:B 0
4 *2031:B *1240:12 9.33006e-06
5 *2031:B *1240:27 4.36589e-06
6 *2032:B *2031:B 1.21072e-05
*RES
1 *2414:Z *2031:B 38.5714 
*END

*D_NET *986 0.000632092
*CONN
*I *1935:B I *D MUX2_X1
*I *2415:Z O *D LOGIC0_X1
*CAP
1 *1935:B 0.000166934
2 *2415:Z 0.000166934
3 *1935:B *1505:B2 0.000223578
4 *1935:B *1935:A 3.01642e-06
5 *1492:A2 *1935:B 6.03486e-06
6 *1493:B1 *1935:B 1.0164e-05
7 *1505:A *1935:B 2.1335e-05
8 *1936:B *1935:B 3.10783e-05
9 *407:12 *1935:B 3.01743e-06
10 *425:12 *1935:B 0
*RES
1 *2415:Z *1935:B 43.7143 
*END

*D_NET *987 0.000374784
*CONN
*I *1940:B I *D MUX2_X1
*I *2416:Z O *D LOGIC0_X1
*CAP
1 *1940:B 0.000178652
2 *2416:Z 0.000178652
3 *1940:B *1439:A 0
4 *1940:B *1442:A1 0
5 *1940:B *1940:A 1.67645e-05
6 *110:14 *1940:B 7.16188e-07
*RES
1 *2416:Z *1940:B 39.8214 
*END

*D_NET *988 0.000444666
*CONN
*I *1947:B I *D MUX2_X1
*I *2417:Z O *D LOGIC0_X1
*CAP
1 *1947:B 0.000146922
2 *2417:Z 0.000146922
3 *1940:S *1947:B 0
4 *2253:D *1947:B 3.25548e-05
5 *99:37 *1947:B 0.000118267
6 *524:18 *1947:B 0
7 *524:31 *1947:B 0
*RES
1 *2417:Z *1947:B 38.5714 
*END

*D_NET *989 0.000445906
*CONN
*I *1955:B I *D MUX2_X1
*I *2418:Z O *D LOGIC0_X1
*CAP
1 *1955:B 0.000166096
2 *2418:Z 0.000166096
3 *1955:B *1938:A 4.00519e-07
4 *1955:B *1952:A 0
5 *1938:S *1955:B 3.61194e-05
6 *1946:A *1955:B 3.34038e-05
7 *99:88 *1955:B 4.11109e-05
8 *113:14 *1955:B 2.68039e-06
*RES
1 *2418:Z *1955:B 41.8214 
*END

*D_NET *990 0.000815203
*CONN
*I *1960:B I *D MUX2_X1
*I *2419:Z O *D LOGIC0_X1
*CAP
1 *1960:B 5.35377e-05
2 *2419:Z 5.35377e-05
3 *2119:A *1960:B 0.000354064
4 *99:45 *1960:B 0.000354064
*RES
1 *2419:Z *1960:B 38.5714 
*END

*D_NET *991 0.000345357
*CONN
*I *1965:B I *D MUX2_X1
*I *2420:Z O *D LOGIC0_X1
*CAP
1 *1965:B 0.000166624
2 *2420:Z 0.000166624
3 *1965:B *1969:A 1.21096e-05
*RES
1 *2420:Z *1965:B 38.5714 
*END

*D_NET *992 0.000585217
*CONN
*I *1972:B I *D MUX2_X1
*I *2421:Z O *D LOGIC0_X1
*CAP
1 *1972:B 0.000109918
2 *2421:Z 0.000109918
3 *95:71 *1972:B 0.000353274
4 *139:8 *1972:B 1.21072e-05
*RES
1 *2421:Z *1972:B 38.5714 
*END

*D_NET *993 0.000566447
*CONN
*I *1980:B I *D MUX2_X1
*I *2422:Z O *D LOGIC0_X1
*CAP
1 *1980:B 0.000152055
2 *2422:Z 0.000152055
3 *1980:B *1545:A2 1.38599e-05
4 *1980:B *1980:A 7.16188e-07
5 *1546:A1 *1980:B 4.32144e-07
6 *1546:A2 *1980:B 2.32024e-05
7 *1546:A3 *1980:B 9.33792e-05
8 *1580:B2 *1980:B 0
9 *1980:S *1980:B 1.27666e-06
10 *147:8 *1980:B 3.07768e-05
11 *499:12 *1980:B 2.56379e-05
12 *524:104 *1980:B 7.30562e-05
*RES
1 *2422:Z *1980:B 42.6072 
*END

*D_NET *994 0.000431419
*CONN
*I *1985:B I *D MUX2_X1
*I *2423:Z O *D LOGIC0_X1
*CAP
1 *1985:B 9.62754e-05
2 *2423:Z 9.62754e-05
3 *1985:B *1985:A 2.14856e-06
4 *1985:B *1990:A 0
5 *1990:S *1985:B 0
6 *2095:B2 *1985:B 0.000211844
7 *152:10 *1985:B 0
8 *530:155 *1985:B 2.48755e-05
*RES
1 *2423:Z *1985:B 35.25 
*END

*D_NET *995 0.000436244
*CONN
*I *1990:B I *D MUX2_X1
*I *2424:Z O *D LOGIC0_X1
*CAP
1 *1990:B 0.000177131
2 *2424:Z 0.000177131
3 *1990:B *1990:A 2.16072e-07
4 *1990:S *1990:B 1.28122e-06
5 *157:10 *1990:B 1.39844e-06
6 *766:105 *1990:B 7.90864e-05
*RES
1 *2424:Z *1990:B 41.8214 
*END

*D_NET *996 0.000431363
*CONN
*I *1995:B I *D MUX2_X1
*I *2425:Z O *D LOGIC0_X1
*CAP
1 *1995:B 0.000128561
2 *2425:Z 0.000128561
3 *2092:A1 *1995:B 4.56751e-05
4 *95:267 *1995:B 5.9664e-05
5 *766:163 *1995:B 6.89028e-05
*RES
1 *2425:Z *1995:B 38.5714 
*END

*D_NET *997 0.00032364
*CONN
*I *2140:B I *D MUX2_X1
*I *2426:Z O *D LOGIC0_X1
*CAP
1 *2140:B 0.000151713
2 *2426:Z 0.000151713
3 *2140:B *1744:A 0
4 *2140:B *1297:18 1.25904e-05
5 *1749:B1 *2140:B 7.62294e-06
*RES
1 *2426:Z *2140:B 37.8929 
*END

*D_NET *998 0.000379738
*CONN
*I *2140:A I *D MUX2_X1
*I *2427:Z O *D LOGIC0_X1
*CAP
1 *2140:A 0.000126346
2 *2427:Z 0.000126346
3 *2140:A *1744:A 0
4 *2029:S *2140:A 0.000127045
5 *2133:A1 *2140:A 0
*RES
1 *2427:Z *2140:A 37.8929 
*END

*D_NET *999 0.000647961
*CONN
*I *2029:B I *D MUX2_X1
*I *2428:Z O *D LOGIC0_X1
*CAP
1 *2029:B 0.000176206
2 *2428:Z 0.000176206
3 *2029:B *1744:A 9.57501e-05
4 *2029:S *2029:B 0
5 *2030:A *2029:B 1.02238e-05
6 *2030:B *2029:B 0.000185923
7 *511:130 *2029:B 3.65322e-06
*RES
1 *2428:Z *2029:B 44.0714 
*END

*D_NET *1000 0.000573961
*CONN
*I *2029:A I *D MUX2_X1
*I *2429:Z O *D LOGIC0_X1
*CAP
1 *2029:A 0.000175892
2 *2429:Z 0.000175892
3 *2029:A *1559:A 6.68482e-05
4 *2030:A *2029:A 0.00012095
5 *2146:B2 *2029:A 0
6 *524:254 *2029:A 1.19252e-05
7 *530:215 *2029:A 2.24534e-05
*RES
1 *2429:Z *2029:A 42.4643 
*END

*D_NET *1001 0.000424158
*CONN
*I *1933:B I *D MUX2_X1
*I *2430:Z O *D LOGIC0_X1
*CAP
1 *1933:B 0.000206047
2 *2430:Z 0.000206047
3 *1933:B *1933:A 1.39839e-06
4 *2028:A1 *1933:B 7.14654e-06
5 *95:81 *1933:B 0
6 *99:12 *1933:B 3.51992e-06
7 *524:216 *1933:B 0
*RES
1 *2430:Z *1933:B 41.8214 
*END

*D_NET *1002 0.000557604
*CONN
*I *1933:A I *D MUX2_X1
*I *2431:Z O *D LOGIC0_X1
*CAP
1 *1933:A 0.000125104
2 *2431:Z 0.000125104
3 *1933:A *1542:A 0
4 *1933:B *1933:A 1.39839e-06
5 *2052:A1 *1933:A 0.000287686
6 *95:81 *1933:A 7.83382e-06
7 *99:12 *1933:A 7.72537e-06
8 *99:14 *1933:A 2.75346e-06
9 *460:10 *1933:A 0
*RES
1 *2431:Z *1933:A 38.6429 
*END

*D_NET *1003 0.000493638
*CONN
*I *1938:B I *D MUX2_X1
*I *2432:Z O *D LOGIC0_X1
*CAP
1 *1938:B 0.000122523
2 *2432:Z 0.000122523
3 *1938:B *1945:B 6.97608e-05
4 *1939:A *1938:B 0.000173718
5 *1939:B *1938:B 5.11191e-06
*RES
1 *2432:Z *1938:B 38.5714 
*END

*D_NET *1004 0.000839068
*CONN
*I *1938:A I *D MUX2_X1
*I *2433:Z O *D LOGIC0_X1
*CAP
1 *1938:A 9.2523e-05
2 *2433:Z 9.2523e-05
3 *1938:A *1945:B 0.000312297
4 *1938:S *1938:A 1.84554e-05
5 *1939:A *1938:A 0.000121739
6 *1946:A *1938:A 0.000185855
7 *1946:B *1938:A 5.11191e-06
8 *1955:B *1938:A 4.00519e-07
9 *99:88 *1938:A 1.0164e-05
*RES
1 *2433:Z *1938:A 41.9643 
*END

*D_NET *1005 0.000886429
*CONN
*I *1945:B I *D MUX2_X1
*I *2434:Z O *D LOGIC0_X1
*CAP
1 *1945:B 9.55058e-05
2 *2434:Z 9.55058e-05
3 *1945:B *1945:A 2.16072e-07
4 *1938:A *1945:B 0.000312297
5 *1938:B *1945:B 6.97608e-05
6 *1938:S *1945:B 0.000298729
7 *1939:A *1945:B 1.34524e-05
8 *1945:S *1945:B 9.62051e-07
*RES
1 *2434:Z *1945:B 42.7143 
*END

*D_NET *1006 0.000418222
*CONN
*I *1945:A I *D MUX2_X1
*I *2435:Z O *D LOGIC0_X1
*CAP
1 *1945:A 0.000207805
2 *2435:Z 0.000207805
3 *1945:B *1945:A 2.16072e-07
4 *1945:S *1945:A 2.39679e-06
5 *1946:A *1945:A 0
6 *99:98 *1945:A 0
7 *122:8 *1945:A 0
*RES
1 *2435:Z *1945:A 42.4643 
*END

*D_NET *1007 0.000522873
*CONN
*I *1953:B I *D MUX2_X1
*I *2436:Z O *D LOGIC0_X1
*CAP
1 *1953:B 6.77558e-05
2 *2436:Z 6.77558e-05
3 *1953:B *1953:A 1.39839e-06
4 *1953:B *1957:A 4.52614e-05
5 *1953:B *1958:B 6.8329e-05
6 *1953:B *2022:B2 0.00025251
7 *1954:A *1953:B 1.53357e-05
8 *124:12 *1953:B 4.52612e-06
*RES
1 *2436:Z *1953:B 35.9286 
*END

*D_NET *1008 0.000731983
*CONN
*I *1953:A I *D MUX2_X1
*I *2437:Z O *D LOGIC0_X1
*CAP
1 *1953:A 0.000106352
2 *2437:Z 0.000106352
3 *1953:A *1958:A 6.97608e-05
4 *1953:A *1958:B 0.000325996
5 *1953:B *1953:A 1.39839e-06
6 *1954:A *1953:A 5.19942e-05
7 *1958:S *1953:A 5.22522e-05
8 *1959:A *1953:A 1.78767e-05
*RES
1 *2437:Z *1953:A 43.3929 
*END

*D_NET *1009 0.000733302
*CONN
*I *1958:B I *D MUX2_X1
*I *2438:Z O *D LOGIC0_X1
*CAP
1 *1958:B 0.000129563
2 *2438:Z 0.000129563
3 *1958:B *1957:A 3.03361e-05
4 *1958:B *1962:A 1.25189e-05
5 *1953:A *1958:B 0.000325996
6 *1953:B *1958:B 6.8329e-05
7 *1954:A *1958:B 7.9406e-06
8 *1959:A *1958:B 2.90546e-05
*RES
1 *2438:Z *1958:B 43.8929 
*END

*D_NET *1010 0.000365493
*CONN
*I *1958:A I *D MUX2_X1
*I *2439:Z O *D LOGIC0_X1
*CAP
1 *1958:A 0.000141693
2 *2439:Z 0.000141693
3 *1953:A *1958:A 6.97608e-05
4 *1958:S *1958:A 6.31115e-06
5 *1959:A *1958:A 6.03476e-06
*RES
1 *2439:Z *1958:A 37.8929 
*END

*D_NET *1011 0.000370012
*CONN
*I *1963:B I *D MUX2_X1
*I *2440:Z O *D LOGIC0_X1
*CAP
1 *1963:B 0.000171191
2 *2440:Z 0.000171191
3 *1963:B *1963:A 0
4 *1964:A *1963:B 5.39659e-06
5 *1964:B *1963:B 2.22337e-05
6 *131:8 *1963:B 0
*RES
1 *2440:Z *1963:B 40.3214 
*END

*D_NET *1012 0.000227211
*CONN
*I *1963:A I *D MUX2_X1
*I *2441:Z O *D LOGIC0_X1
*CAP
1 *1963:A 7.33883e-05
2 *2441:Z 7.33883e-05
3 *1963:B *1963:A 0
4 *1964:A *1963:A 8.04349e-05
*RES
1 *2441:Z *1963:A 28.5 
*END

*D_NET *1013 0.000501747
*CONN
*I *1970:B I *D MUX2_X1
*I *2442:Z O *D LOGIC0_X1
*CAP
1 *1970:B 9.80936e-05
2 *2442:Z 9.80936e-05
3 *1971:A *1970:B 0
4 *1973:A2 *1970:B 1.40436e-05
5 *138:10 *1970:B 0.000134192
6 *139:8 *1970:B 2.03657e-05
7 *766:20 *1970:B 0.000136958
*RES
1 *2442:Z *1970:B 38.5714 
*END

*D_NET *1014 9.06763e-05
*CONN
*I *1970:A I *D MUX2_X1
*I *2443:Z O *D LOGIC0_X1
*CAP
1 *1970:A 4.01422e-05
2 *2443:Z 4.01422e-05
3 *1971:A *1970:A 0
4 *766:20 *1970:A 1.03918e-05
*RES
1 *2443:Z *1970:A 24.3214 
*END

*D_NET *1015 0.000512919
*CONN
*I *1978:B I *D MUX2_X1
*I *2444:Z O *D LOGIC0_X1
*CAP
1 *1978:B 0.000206618
2 *2444:Z 0.000206618
3 *1983:S *1978:B 9.62051e-07
4 *2082:A2 *1978:B 4.32319e-05
5 *2084:B2 *1978:B 0
6 *149:8 *1978:B 0
7 *177:10 *1978:B 5.01029e-05
8 *511:69 *1978:B 5.38638e-06
9 *511:73 *1978:B 0
*RES
1 *2444:Z *1978:B 44.0714 
*END

*D_NET *1016 7.02945e-05
*CONN
*I *1978:A I *D MUX2_X1
*I *2445:Z O *D LOGIC0_X1
*CAP
1 *1978:A 3.51473e-05
2 *2445:Z 3.51473e-05
3 *1978:A *1982:A 0
*RES
1 *2445:Z *1978:A 23.6429 
*END

*D_NET *1017 0.000408982
*CONN
*I *1983:B I *D MUX2_X1
*I *2446:Z O *D LOGIC0_X1
*CAP
1 *1983:B 0.000123754
2 *2446:Z 0.000123754
3 *1984:A *1983:B 6.1525e-06
4 *151:12 *1983:B 0.000121739
5 *511:73 *1983:B 3.35822e-05
*RES
1 *2446:Z *1983:B 36.3929 
*END

*D_NET *1018 0.000102248
*CONN
*I *1983:A I *D MUX2_X1
*I *2447:Z O *D LOGIC0_X1
*CAP
1 *1983:A 5.07595e-05
2 *2447:Z 5.07595e-05
3 *1983:S *1983:A 7.29164e-07
*RES
1 *2447:Z *1983:A 15.3571 
*END

*D_NET *1019 0.000736586
*CONN
*I *1988:B I *D MUX2_X1
*I *2448:Z O *D LOGIC0_X1
*CAP
1 *1988:B 0.00014575
2 *2448:Z 0.00014575
3 *1988:B *1988:A 7.16188e-07
4 *1988:B *1992:A 1.2568e-05
5 *1988:B *2006:B2 9.1033e-05
6 *1602:A *1988:B 0
7 *1988:S *1988:B 1.27666e-06
8 *1989:A *1988:B 4.2108e-05
9 *1991:A *1988:B 9.1913e-05
10 *1991:B *1988:B 2.25089e-06
11 *2005:A2 *1988:B 0.000108259
12 *156:8 *1988:B 9.49605e-05
*RES
1 *2448:Z *1988:B 45.3214 
*END

*D_NET *1020 0.000436589
*CONN
*I *1988:A I *D MUX2_X1
*I *2449:Z O *D LOGIC0_X1
*CAP
1 *1988:A 0.000216559
2 *2449:Z 0.000216559
3 *1988:A *2162:A1 0
4 *1988:B *1988:A 7.16188e-07
5 *1988:S *1988:A 2.75346e-06
6 *1989:A *1988:A 0
7 *95:14 *1988:A 0
*RES
1 *2449:Z *1988:A 42.4643 
*END

*D_NET *1021 0.000672726
*CONN
*I *1993:B I *D MUX2_X1
*I *2450:Z O *D LOGIC0_X1
*CAP
1 *1993:B 0.000142775
2 *2450:Z 0.000142775
3 *1993:S *1993:B 0
4 *2105:B2 *1993:B 0.000302496
5 *2106:B2 *1993:B 6.81795e-05
6 *95:240 *1993:B 9.35655e-06
7 *530:206 *1993:B 7.14424e-06
8 *766:176 *1993:B 0
*RES
1 *2450:Z *1993:B 42.0357 
*END

*D_NET *1022 0.000323593
*CONN
*I *1993:A I *D MUX2_X1
*I *2451:Z O *D LOGIC0_X1
*CAP
1 *1993:A 0.000161797
2 *2451:Z 0.000161797
3 *1603:A1 *1993:A 0
4 *1608:A2 *1993:A 0
5 *1993:S *1993:A 0
6 *1994:A *1993:A 0
*RES
1 *2451:Z *1993:A 37.8929 
*END

*D_NET *1023 0.000329105
*CONN
*I *1849:B I *D MUX2_X1
*I *2452:Z O *D LOGIC0_X1
*CAP
1 *1849:B 0.000158499
2 *2452:Z 0.000158499
3 *1849:B *1785:A 0
4 *1785:B *1849:B 0
5 *1850:B *1849:B 1.21072e-05
*RES
1 *2452:Z *1849:B 38.5714 
*END

*D_NET *1024 0.000487471
*CONN
*I *1849:A I *D MUX2_X1
*I *2453:Z O *D LOGIC0_X1
*CAP
1 *1849:A 0.000223883
2 *2453:Z 0.000223883
3 *1849:A *1785:A 1.72191e-05
4 *1849:A *1242:14 2.23415e-06
5 *1849:S *1849:A 2.75346e-06
6 *1850:A *1849:A 0
7 *1850:B *1849:A 3.88947e-06
8 *2002:A *1849:A 0
9 *771:10 *1849:A 1.36089e-05
*RES
1 *2453:Z *1849:A 44.0714 
*END

*D_NET *1025 0.000342088
*CONN
*I *1855:B I *D MUX2_X1
*I *2454:Z O *D LOGIC0_X1
*CAP
1 *1855:B 0.000148416
2 *2454:Z 0.000148416
3 *1855:B *1618:A 3.89308e-05
4 *1617:B *1855:B 6.32461e-06
5 *1664:B2 *1855:B 0
6 *751:8 *1855:B 0
*RES
1 *2454:Z *1855:B 38.5714 
*END

*D_NET *1026 0.000550028
*CONN
*I *1855:A I *D MUX2_X1
*I *2455:Z O *D LOGIC0_X1
*CAP
1 *1855:A 0.000110977
2 *2455:Z 0.000110977
3 *1855:S *1855:A 0.000298087
4 *751:8 *1855:A 0
5 *766:223 *1855:A 2.99872e-05
*RES
1 *2455:Z *1855:A 37.8929 
*END

*D_NET *1027 0.000651308
*CONN
*I *2138:B I *D MUX2_X1
*I *2456:Z O *D LOGIC0_X1
*CAP
1 *2138:B 0.000189507
2 *2456:Z 0.000189507
3 *2138:B *1741:A 1.40196e-06
4 *2138:B *2137:A 0.000147189
5 *2138:B *2138:A 2.58428e-06
6 *2138:B *1240:27 4.32298e-05
7 *2031:B *2138:B 0
8 *2137:B *2138:B 7.78888e-05
*RES
1 *2456:Z *2138:B 46.0714 
*END

*D_NET *1028 0.000455417
*CONN
*I *1837:B2 I *D AOI22_X1
*I *2457:Z O *D LOGIC0_X1
*CAP
1 *1837:B2 0.000120387
2 *2457:Z 0.000120387
3 *1611:A2 *1837:B2 0
4 *1839:A *1837:B2 4.32319e-05
5 *1839:B2 *1837:B2 7.98408e-05
6 *2130:A *1837:B2 0
7 *516:43 *1837:B2 5.16586e-05
8 *516:73 *1837:B2 1.78091e-05
9 *520:62 *1837:B2 1.46216e-05
10 *520:73 *1837:B2 7.48003e-06
*RES
1 *2457:Z *1837:B2 37.2143 
*END

*D_NET *1029 0.000468873
*CONN
*I *1847:B2 I *D OAI21_X1
*I *2458:Z O *D LOGIC0_X1
*CAP
1 *1847:B2 0.000196288
2 *2458:Z 0.000196288
3 *1833:A *1847:B2 0
4 *1847:B1 *1847:B2 1.21774e-06
5 *1877:C1 *1847:B2 0
6 *79:16 *1847:B2 5.43035e-06
7 *530:169 *1847:B2 2.22337e-05
8 *530:184 *1847:B2 4.74162e-05
9 *751:71 *1847:B2 0
*RES
1 *2458:Z *1847:B2 43.1429 
*END

*D_NET *1030 0.000522524
*CONN
*I *1885:B2 I *D AOI22_X1
*I *2459:Z O *D LOGIC0_X1
*CAP
1 *1885:B2 0.000167589
2 *2459:Z 0.000167589
3 *1886:B1 *1885:B2 0
4 *1886:B2 *1885:B2 5.66324e-05
5 *1906:B1 *1885:B2 9.28396e-05
6 *2232:D *1885:B2 4.29258e-06
7 *2232:RN *1885:B2 3.35822e-05
*RES
1 *2459:Z *1885:B2 40.4643 
*END

*D_NET *1031 0.000107818
*CONN
*I *2161:A I *D INV_X1
*I *2460:Z O *D LOGIC0_X1
*CAP
1 *2161:A 4.99173e-05
2 *2460:Z 4.99173e-05
3 *2163:B2 *2161:A 6.06867e-06
4 *2164:B2 *2161:A 1.91498e-06
*RES
1 *2460:Z *2161:A 15.25 
*END

*D_NET *1032 0.00034092
*CONN
*I *2162:A1 I *D NOR2_X1
*I *2461:Z O *D LOGIC0_X1
*CAP
1 *2162:A1 0.00017046
2 *2461:Z 0.00017046
3 *1602:B *2162:A1 0
4 *1988:A *2162:A1 0
5 *520:14 *2162:A1 0
*RES
1 *2461:Z *2162:A1 38.5714 
*END

*D_NET *1033 0.000606444
*CONN
*I *1880:B I *D MUX2_X1
*I *2462:Z O *D LOGIC0_X1
*CAP
1 *1880:B 0.000192964
2 *2462:Z 0.000192964
3 *1880:B *1258:113 0.000198626
4 *1880:A *1880:B 2.61827e-06
5 *2131:B2 *1880:B 0
6 *287:29 *1880:B 0
7 *532:23 *1880:B 1.92715e-05
8 *532:36 *1880:B 0
*RES
1 *2462:Z *1880:B 44.3214 
*END

*D_NET *1034 0.000991402
*CONN
*I *1841:C2 I *D AOI221_X1
*I *2463:Z O *D LOGIC0_X1
*CAP
1 *1841:C2 7.31703e-05
2 *2463:Z 7.31703e-05
3 *1925:B1 *1841:C2 0.000313999
4 *1927:A *1841:C2 5.11191e-06
5 *61:256 *1841:C2 0
6 *511:167 *1841:C2 6.92212e-05
7 *755:10 *1841:C2 7.61366e-05
8 *755:12 *1841:C2 0.000113787
9 *755:14 *1841:C2 0.00023657
10 *759:29 *1841:C2 3.02351e-05
*RES
1 *2463:Z *1841:C2 42.6429 
*END

*D_NET *1035 0.000592276
*CONN
*I *2134:B2 I *D OAI21_X1
*I *2464:Z O *D LOGIC0_X1
*CAP
1 *2134:B2 0.00021841
2 *2464:Z 0.00021841
3 *2134:B2 *1554:A1 0.000154851
4 *2134:B2 *1559:A 0
5 *2134:B2 *1561:B1 0
6 *1560:A1 *2134:B2 6.0647e-07
7 *766:103 *2134:B2 0
*RES
1 *2464:Z *2134:B2 45.2143 
*END

*D_NET *1036 0.000659204
*CONN
*I *1868:B2 I *D AOI21_X2
*I *2465:Z O *D LOGIC0_X1
*CAP
1 *1868:B2 0.000157711
2 *2465:Z 0.000157711
3 *1864:A *1868:B2 2.04476e-05
4 *1868:B1 *1868:B2 2.36213e-05
5 *1869:B2 *1868:B2 0.000289341
6 *751:8 *1868:B2 0
7 *786:10 *1868:B2 1.03728e-05
*RES
1 *2465:Z *1868:B2 43.6429 
*END

*D_NET *1040 0.00049219
*CONN
*I *1860:A1 I *D NAND2_X1
*I *2466:Z O *D LOGIC0_X1
*CAP
1 *1860:A1 0.000217121
2 *2466:Z 0.000217121
3 *1856:A *1860:A1 0
4 *1859:A *1860:A1 0
5 *1861:A1 *1860:A1 5.79481e-05
6 *1862:B *1860:A1 0
7 *693:8 *1860:A1 0
8 *774:10 *1860:A1 0
*RES
1 *2466:Z *1860:A1 44.5357 
*END

*D_NET *1041 0.000469409
*CONN
*I *1950:A1 I *D NAND2_X1
*I *2476:Z O *D LOGIC0_X1
*CAP
1 *1950:A1 0.0002069
2 *2476:Z 0.0002069
3 *1948:A2 *1950:A1 0
4 *1951:A1 *1950:A1 0
5 *99:56 *1950:A1 5.56098e-05
6 *114:8 *1950:A1 0
7 *116:8 *1950:A1 0
8 *511:18 *1950:A1 0
*RES
1 *2476:Z *1950:A1 42.4643 
*END

*D_NET *1042 0.000501727
*CONN
*I *1943:B2 I *D AOI21_X1
*I *2477:Z O *D LOGIC0_X1
*CAP
1 *1943:B2 0.000229248
2 *2477:Z 0.000229248
3 *106:14 *1943:B2 4.32319e-05
4 *113:14 *1943:B2 0
*RES
1 *2477:Z *1943:B2 45.8572 
*END

*D_NET *1043 0.000477354
*CONN
*I *1937:A I *D XNOR2_X1
*I *2478:Z O *D LOGIC0_X1
*CAP
1 *1937:A 0.000139458
2 *2478:Z 0.000139458
3 *1937:B *1937:A 1.92742e-05
4 *2046:A *1937:A 1.19839e-05
5 *2046:B1 *1937:A 1.93619e-05
6 *61:167 *1937:A 0
7 *61:173 *1937:A 0
8 *61:179 *1937:A 0
9 *104:8 *1937:A 0.000147817
10 *192:17 *1937:A 0
*RES
1 *2478:Z *1937:A 28.3572 
*END

*D_NET *1044 0.000525844
*CONN
*I *2033:A I *D XOR2_X1
*I *2479:Z O *D LOGIC0_X1
*CAP
1 *2033:A 0.000149796
2 *2479:Z 0.000149796
3 *2033:B *2033:A 3.83757e-05
4 *2034:A3 *2033:A 1.49198e-05
5 *2035:B1 *2033:A 5.20238e-07
6 *2040:B1 *2033:A 0.00012016
7 *200:8 *2033:A 5.22759e-05
*RES
1 *2479:Z *2033:A 40.9643 
*END

*D_NET *1045 0.000577004
*CONN
*I *2137:A I *D XOR2_X1
*I *2480:Z O *D LOGIC0_X1
*CAP
1 *2137:A 0.000102434
2 *2480:Z 0.000102434
3 *2137:A *1240:12 6.2553e-05
4 *2137:A *1240:27 1.46651e-05
5 *2138:B *2137:A 0.000147189
6 *2138:S *2137:A 0.000147729
*RES
1 *2480:Z *2137:A 38.6429 
*END

*D_NET *1046 0.000691502
*CONN
*I *1767:B1 I *D OAI21_X1
*I *2481:Z O *D LOGIC0_X1
*CAP
1 *1767:B1 0.000143476
2 *2481:Z 0.000143476
3 *1767:B1 *1771:C1 6.59204e-05
4 *1767:B1 *1865:B 2.98439e-06
5 *1767:B1 *1229:36 2.54388e-05
6 *1767:B1 *1230:19 0
7 *1768:A *1767:B1 5.10087e-06
8 *1771:A *1767:B1 2.77008e-06
9 *1774:A2 *1767:B1 0.000302335
10 *684:8 *1767:B1 0
*RES
1 *2481:Z *1767:B1 44.3214 
*END

*D_NET *1047 0.000441911
*CONN
*I *1854:A I *D XOR2_X1
*I *2467:Z O *D LOGIC0_X1
*CAP
1 *1854:A 0.000179549
2 *2467:Z 0.000179549
3 *1854:A *2002:B2 1.31639e-05
4 *2098:A1 *1854:A 1.32311e-05
5 *2098:A2 *1854:A 0
6 *511:134 *1854:A 3.83757e-05
7 *766:176 *1854:A 1.80418e-05
*RES
1 *2467:Z *1854:A 40.9643 
*END

*D_NET *1048 0.000623755
*CONN
*I *1998:A1 I *D NAND2_X1
*I *2468:Z O *D LOGIC0_X1
*CAP
1 *1998:A1 0.00020904
2 *2468:Z 0.00020904
3 *2000:B *1998:A1 2.64615e-05
4 *2003:B1 *1998:A1 4.9678e-06
5 *2003:B2 *1998:A1 0
6 *2098:A2 *1998:A1 2.08416e-06
7 *2099:A *1998:A1 2.20371e-05
8 *2099:B *1998:A1 3.99139e-05
9 *167:10 *1998:A1 5.61491e-05
10 *170:8 *1998:A1 0
11 *170:12 *1998:A1 5.40612e-05
*RES
1 *2468:Z *1998:A1 48 
*END

*D_NET *1049 0.000526131
*CONN
*I *1992:A I *D XOR2_X1
*I *2469:Z O *D LOGIC0_X1
*CAP
1 *1992:A 0.00016712
2 *2469:Z 0.00016712
3 *1992:A *2237:CK 9.31049e-06
4 *1988:B *1992:A 1.2568e-05
5 *1991:A *1992:A 6.18458e-05
6 *1992:B *1992:A 5.67661e-05
7 *2005:A2 *1992:A 4.45767e-06
8 *156:8 *1992:A 3.66854e-05
9 *171:12 *1992:A 7.62298e-06
10 *171:14 *1992:A 2.63456e-06
*RES
1 *2469:Z *1992:A 42.0357 
*END

*D_NET *1050 0.00051421
*CONN
*I *1987:A I *D XNOR2_X1
*I *2470:Z O *D LOGIC0_X1
*CAP
1 *1987:A 0.000163275
2 *2470:Z 0.000163275
3 *1987:A *1547:A 3.34038e-05
4 *1986:A *1987:A 4.78819e-05
5 *1987:B *1987:A 1.40196e-05
6 *2008:A2 *1987:A 5.56073e-05
7 *2010:A1 *1987:A 7.62806e-06
8 *2010:A2 *1987:A 0
9 *151:12 *1987:A 2.49705e-05
10 *174:10 *1987:A 4.14913e-06
11 *511:73 *1987:A 0
*RES
1 *2470:Z *1987:A 41.1429 
*END

*D_NET *1051 0.000185593
*CONN
*I *1982:A I *D XOR2_X1
*I *2471:Z O *D LOGIC0_X1
*CAP
1 *1982:A 9.27963e-05
2 *2471:Z 9.27963e-05
3 *1978:A *1982:A 0
*RES
1 *2471:Z *1982:A 29.0714 
*END

*D_NET *1052 0.000432677
*CONN
*I *1975:A1 I *D NAND2_X1
*I *2472:Z O *D LOGIC0_X1
*CAP
1 *1975:A1 0.000195117
2 *2472:Z 0.000195117
3 *2075:A1 *1975:A1 4.24423e-05
4 *2248:D *1975:A1 0
5 *766:20 *1975:A1 0
*RES
1 *2472:Z *1975:A1 41.2857 
*END

*D_NET *1053 0.00032233
*CONN
*I *1968:B2 I *D AOI21_X1
*I *2473:Z O *D LOGIC0_X1
*CAP
1 *1968:B2 0.000154386
2 *2473:Z 0.000154386
3 *1967:A *1968:B2 3.19164e-06
4 *1968:A *1968:B2 9.52324e-06
5 *1968:B1 *1968:B2 8.43215e-07
6 *131:8 *1968:B2 0
*RES
1 *2473:Z *1968:B2 36.25 
*END

*D_NET *1054 0.000442397
*CONN
*I *1962:A I *D XNOR2_X1
*I *2474:Z O *D LOGIC0_X1
*CAP
1 *1962:A 0.000207528
2 *2474:Z 0.000207528
3 *1962:A *2018:A1 0
4 *1958:B *1962:A 1.25189e-05
5 *1958:S *1962:A 0
6 *1959:A *1962:A 0
7 *1959:B *1962:A 6.56185e-06
8 *1962:B *1962:A 8.26038e-06
*RES
1 *2474:Z *1962:A 31.1072 
*END

*D_NET *1055 0.000497544
*CONN
*I *1957:A I *D XOR2_X1
*I *2475:Z O *D LOGIC0_X1
*CAP
1 *1957:A 0.000143894
2 *2475:Z 0.000143894
3 *1957:A *2022:B2 0
4 *1953:B *1957:A 4.52614e-05
5 *1958:B *1957:A 3.03361e-05
6 *123:8 *1957:A 0
7 *124:12 *1957:A 0.000134158
*RES
1 *2475:Z *1957:A 40.7143 
*END

*D_NET *1056 0.000397481
*CONN
*I *1463:A I *D INV_X1
*I *2631:Z O *D LOGIC0_X1
*CAP
1 *1463:A 0.000177456
2 *2631:Z 0.000177456
3 *1458:B *1463:A 3.26887e-06
4 *1459:A1 *1463:A 0
5 *1465:A2 *1463:A 0
6 *1476:B1 *1463:A 4.4683e-06
7 *379:8 *1463:A 7.16188e-07
8 *380:12 *1463:A 3.41146e-05
*RES
1 *2631:Z *1463:A 40.4286 
*END

*D_NET *1057 0.000591723
*CONN
*I *1457:A I *D INV_X1
*I *2632:Z O *D LOGIC0_X1
*CAP
1 *1457:A 0.000178861
2 *2632:Z 0.000178861
3 *1430:B *1457:A 1.77822e-05
4 *1458:B *1457:A 8.41402e-06
5 *1459:A1 *1457:A 0.000171595
6 *1460:B *1457:A 4.92317e-06
7 *377:8 *1457:A 3.1286e-05
*RES
1 *2632:Z *1457:A 44.0714 
*END

*D_NET *1058 0.000308278
*CONN
*I *1451:A I *D INV_X1
*I *2633:Z O *D LOGIC0_X1
*CAP
1 *1451:A 0.000154031
2 *2633:Z 0.000154031
3 *1451:A *1428:A1 2.16072e-07
4 *1429:B *1451:A 0
5 *400:14 *1451:A 0
*RES
1 *2633:Z *1451:A 35.6786 
*END

*D_NET *1059 0.000745824
*CONN
*I *1440:A1 I *D AND2_X1
*I *2634:Z O *D LOGIC0_X1
*CAP
1 *1440:A1 0
2 *2634:Z 0.000222841
3 *1059:14 0.000222841
4 *1059:14 *1439:A 0
5 *1059:14 *1441:A 8.52505e-05
6 *1059:14 *1442:A1 0
7 *1059:14 *1480:A 0
8 *1439:B *1059:14 0.000201695
9 *1442:A2 *1059:14 0
10 *107:8 *1059:14 7.12794e-06
11 *109:8 *1059:14 0
12 *110:14 *1059:14 6.06867e-06
*RES
1 *2634:Z *1059:14 45.1786 
2 *1059:14 *1440:A1 5 
*END

*D_NET *1060 0.000162386
*CONN
*I *1436:A I *D XNOR2_X1
*I *2635:Z O *D LOGIC0_X1
*CAP
1 *1436:A 8.11929e-05
2 *2635:Z 8.11929e-05
3 *1445:A *1436:A 0
4 *1445:C1 *1436:A 0
5 *1445:C2 *1436:A 0
*RES
1 *2635:Z *1436:A 17.6071 
*END

*D_NET *1061 0.00051348
*CONN
*I *1431:A1 I *D NAND2_X1
*I *2636:Z O *D LOGIC0_X1
*CAP
1 *1431:A1 0.000211364
2 *2636:Z 0.000211364
3 *1431:A1 *1454:A 1.25407e-05
4 *1430:B *1431:A1 9.80649e-06
5 *1431:A2 *1431:A1 2.26252e-05
6 *1434:B1 *1431:A1 2.80752e-05
7 *349:8 *1431:A1 1.77043e-05
*RES
1 *2636:Z *1431:A1 45.2143 
*END

*D_NET *1062 0.000536044
*CONN
*I *1427:A I *D XNOR2_X1
*I *2637:Z O *D LOGIC0_X1
*CAP
1 *1427:A 0.000213679
2 *2637:Z 0.000213679
3 *1450:A *1427:A 3.09411e-06
4 *1450:B *1427:A 1.05232e-05
5 *1450:C2 *1427:A 4.4596e-05
6 *1481:A1 *1427:A 1.88001e-05
7 *364:16 *1427:A 1.74265e-05
8 *366:14 *1427:A 1.42464e-05
9 *369:18 *1427:A 0
*RES
1 *2637:Z *1427:A 35.1429 
*END

*D_NET *1063 0.000430401
*CONN
*I *2200:A I *D XOR2_X1
*I *2638:Z O *D LOGIC0_X1
*CAP
1 *2200:A 0.000158875
2 *2638:Z 0.000158875
3 *2200:A *1741:A 3.78407e-05
4 *2200:A *2199:A 2.66938e-05
5 *2200:A *2202:B2 1.06141e-05
6 *2199:B *2200:A 3.51054e-05
7 *2200:B *2200:A 2.39679e-06
*RES
1 *2638:Z *2200:A 40.2857 
*END

*D_NET *1064 0.000483935
*CONN
*I *2194:A I *D INV_X1
*I *2639:Z O *D LOGIC0_X1
*CAP
1 *2194:A 0.000148322
2 *2639:Z 0.000148322
3 *2194:A *2195:A 0
4 *2194:A *2197:A 1.60038e-06
5 *2194:A *2198:A1 0
6 *2194:A *2202:A1 9.09536e-05
7 *2196:A1 *2194:A 1.01915e-05
8 *2196:A2 *2194:A 4.26902e-05
9 *2197:B *2194:A 1.39839e-06
10 *2204:A *2194:A 2.51216e-05
11 *313:10 *2194:A 1.53342e-05
*RES
1 *2639:Z *2194:A 40.4286 
*END

*D_NET *1065 0.00023796
*CONN
*I *2192:A I *D XNOR2_X1
*I *2640:Z O *D LOGIC0_X1
*CAP
1 *2192:A 0.000116888
2 *2640:Z 0.000116888
3 *1483:B1 *2192:A 2.83077e-06
4 *2208:A1 *2192:A 1.35285e-06
5 *2209:A *2192:A 0
6 *308:10 *2192:A 0
*RES
1 *2640:Z *2192:A 21.6786 
*END

*D_NET *1066 0.00027766
*CONN
*I *2189:A I *D XNOR2_X1
*I *2641:Z O *D LOGIC0_X1
*CAP
1 *2189:A 0.000121246
2 *2641:Z 0.000121246
3 *2189:A *2188:A 0
4 *2189:A *2210:A 6.56007e-06
5 *2211:B2 *2189:A 0
6 *2211:C2 *2189:A 2.86077e-05
*RES
1 *2641:Z *2189:A 22.75 
*END

*D_NET *1067 0.000400555
*CONN
*I *2185:A I *D XNOR2_X1
*I *2642:Z O *D LOGIC0_X1
*CAP
1 *2185:A 0.000178335
2 *2642:Z 0.000178335
3 *2187:B *2185:A 0
4 *2220:A1 *2185:A 0
5 *2220:A2 *2185:A 1.0303e-05
6 *300:12 *2185:A 3.35822e-05
7 *301:12 *2185:A 0
8 *301:16 *2185:A 0
*RES
1 *2642:Z *2185:A 28.6072 
*END

*D_NET *1068 0.000447863
*CONN
*I *2174:A I *D XNOR2_X1
*I *2643:Z O *D LOGIC0_X1
*CAP
1 *2174:A 0.000215556
2 *2643:Z 0.000215556
3 *2174:A *1471:A 3.51536e-06
4 *1470:A2 *2174:A 1.32348e-05
5 *1472:B1 *2174:A 0
6 *1473:A2 *2174:A 0
7 *2188:B *2174:A 0
8 *2223:C1 *2174:A 0
*RES
1 *2643:Z *2174:A 31.1072 
*END

*D_NET *1069 0.00037517
*CONN
*I *2177:A I *D XOR2_X2
*I *2644:Z O *D LOGIC0_X1
*CAP
1 *2177:A 0.000187163
2 *2644:Z 0.000187163
3 *2177:A *2182:B2 0
4 *2173:B *2177:A 0
5 *2177:B *2177:A 8.43215e-07
*RES
1 *2644:Z *2177:A 28.5357 
*END

*D_NET *1070 0.000336244
*CONN
*I *2180:A I *D XNOR2_X2
*I *2645:Z O *D LOGIC0_X1
*CAP
1 *2180:A 0.000135146
2 *2645:Z 0.000135146
3 *2180:A *2179:A 0
4 *2180:A *2216:A 3.09411e-06
5 *2179:B *2180:A 0
6 *2180:B *2180:A 1.21774e-06
7 *2217:C2 *2180:A 2.07669e-05
8 *2224:A *2180:A 4.08726e-05
*RES
1 *2645:Z *2180:A 25.7857 
*END

*D_NET *1071 0.000138492
*CONN
*I *2176:B I *D XOR2_X1
*I *2646:Z O *D LOGIC1_X1
*CAP
1 *2176:B 6.92459e-05
2 *2646:Z 6.92459e-05
*RES
1 *2646:Z *2176:B 17.0357 
*END

*D_NET *1072 0.000436068
*CONN
*I *1553:A I *D XOR2_X1
*I *2349:Z O *D LOGIC1_X1
*CAP
1 *1553:A 0.000190496
2 *2349:Z 0.000190496
3 *1553:A *1557:A 0
4 *1553:A *1419:23 5.50748e-05
*RES
1 *2349:Z *1553:A 41.7857 
*END

*D_NET *1073 0.000482917
*CONN
*I *1516:A I *D XNOR2_X1
*I *2609:Z O *D LOGIC0_X1
*CAP
1 *1516:A 0.00019327
2 *2609:Z 0.00019327
3 *2050:A *1516:A 0
4 *99:16 *1516:A 4.69845e-05
5 *435:10 *1516:A 4.93921e-05
6 *530:122 *1516:A 0
*RES
1 *2609:Z *1516:A 32.3572 
*END

*D_NET *1074 0.000397275
*CONN
*I *1497:A I *D XOR2_X1
*I *2610:Z O *D LOGIC0_X1
*CAP
1 *1497:A 0.000195416
2 *2610:Z 0.000195416
3 *1497:A *1494:A 0
4 *1497:A *1237:25 0
5 *1497:B *1497:A 6.44217e-06
6 *511:8 *1497:A 0
*RES
1 *2610:Z *1497:A 40.2857 
*END

*D_NET *1075 0.000469
*CONN
*I *1494:A I *D XNOR2_X1
*I *2611:Z O *D LOGIC0_X1
*CAP
1 *1494:A 0.000221501
2 *2611:Z 0.000221501
3 *1494:A *1498:A1 7.66905e-06
4 *1497:A *1494:A 0
5 *1497:B *1494:A 1.83288e-05
*RES
1 *2611:Z *1494:A 32.3572 
*END

*D_NET *1076 0.000305403
*CONN
*I *1489:A I *D XOR2_X1
*I *2612:Z O *D LOGIC0_X1
*CAP
1 *1489:A 0.000129748
2 *2612:Z 0.000129748
3 *1489:A *1490:A1 0
4 *1489:A *2136:A1 0
5 *1489:A *2199:A 1.92163e-05
6 *1489:A *1239:10 2.66914e-05
7 *1491:B *1489:A 0
8 *408:10 *1489:A 0
*RES
1 *2612:Z *1489:A 35.8572 
*END

*D_NET *1077 0.000523975
*CONN
*I *1485:A I *D XNOR2_X1
*I *2613:Z O *D LOGIC0_X1
*CAP
1 *1485:A 0.000261988
2 *2613:Z 0.000261988
3 *1484:A *1485:A 0
4 *1484:B *1485:A 0
5 *1590:A1 *1485:A 0
6 *1591:A2 *1485:A 0
7 *1592:A2 *1485:A 0
8 *1605:B2 *1485:A 0
9 *403:10 *1485:A 0
10 *504:8 *1485:A 0
*RES
1 *2613:Z *1485:A 36.25 
*END

*D_NET *1078 0.000378053
*CONN
*I *1469:A I *D XNOR2_X1
*I *2614:Z O *D LOGIC0_X1
*CAP
1 *1469:A 0.000183514
2 *2614:Z 0.000183514
3 *1469:A *2173:A 0
4 *388:10 *1469:A 1.1025e-05
*RES
1 *2614:Z *1469:A 28.8572 
*END

*D_NET *1079 0.000359069
*CONN
*I *1464:A I *D XNOR2_X1
*I *2615:Z O *D LOGIC0_X1
*CAP
1 *1464:A 0.00016904
2 *2615:Z 0.00016904
3 *1464:B *1464:A 1.87418e-05
4 *383:10 *1464:A 2.24822e-06
*RES
1 *2615:Z *1464:A 27.6071 
*END

*D_NET *1080 0.000157577
*CONN
*I *1458:A I *D XNOR2_X1
*I *2616:Z O *D LOGIC0_X1
*CAP
1 *1458:A 6.90259e-05
2 *2616:Z 6.90259e-05
3 *1430:B *1458:A 9.62051e-07
4 *1458:B *1458:A 1.85634e-05
*RES
1 *2616:Z *1458:A 17.3571 
*END

*D_NET *1081 0.000107116
*CONN
*I *1452:A I *D XNOR2_X2
*I *2617:Z O *D LOGIC0_X1
*CAP
1 *1452:A 5.06834e-05
2 *2617:Z 5.06834e-05
3 *1452:B *1452:A 5.74951e-06
*RES
1 *2617:Z *1452:A 15.25 
*END

*D_NET *1082 0.000434626
*CONN
*I *1439:A I *D XOR2_X1
*I *2618:Z O *D LOGIC0_X1
*CAP
1 *1439:A 0.000217313
2 *2618:Z 0.000217313
3 *1439:A *1940:A 0
4 *1940:B *1439:A 0
5 *511:16 *1439:A 0
6 *1059:14 *1439:A 0
*RES
1 *2618:Z *1439:A 41.9643 
*END

*D_NET *1083 0.000653103
*CONN
*I *1562:A I *D XOR2_X1
*I *2604:Z O *D LOGIC0_X1
*CAP
1 *1562:A 0.000143977
2 *2604:Z 0.000143977
3 *1562:A *1574:A2 2.4881e-05
4 *1562:A *1745:A 0
5 *1562:A *1790:A2 6.49787e-06
6 *1562:B *1562:A 4.32144e-07
7 *1563:B1 *1562:A 2.94093e-05
8 *1564:A2 *1562:A 1.39097e-06
9 *1745:B *1562:A 0
10 *481:10 *1562:A 0.000302537
11 *511:130 *1562:A 0
*RES
1 *2604:Z *1562:A 41.2143 
*END

*D_NET *1084 0.000170429
*CONN
*I *1435:A I *D XNOR2_X2
*I *2619:Z O *D LOGIC0_X1
*CAP
1 *1435:A 6.81571e-05
2 *2619:Z 6.81571e-05
3 *1435:A *1444:A 0
4 *1435:B *1435:A 3.41146e-05
*RES
1 *2619:Z *1435:A 27.5357 
*END

*D_NET *1085 0.000484507
*CONN
*I *1430:A I *D XOR2_X1
*I *2620:Z O *D LOGIC0_X1
*CAP
1 *1430:A 0.000116295
2 *2620:Z 0.000116295
3 *1430:A *1429:A 1.1766e-05
4 *1430:A *1432:A 0.000147729
5 *1430:A *1433:A1 0
6 *1431:A2 *1430:A 6.27023e-05
7 *1434:B1 *1430:A 0
8 *1434:B2 *1430:A 0
9 *349:8 *1430:A 2.06681e-05
10 *351:8 *1430:A 9.05228e-06
*RES
1 *2620:Z *1430:A 37.1429 
*END

*D_NET *1086 0.000377368
*CONN
*I *1426:A I *D XNOR2_X1
*I *2621:Z O *D LOGIC0_X1
*CAP
1 *1426:A 0.000162962
2 *2621:Z 0.000162962
3 *1426:B *1426:A 1.85755e-05
4 *1450:C2 *1426:A 0
5 *345:8 *1426:A 0
6 *369:18 *1426:A 3.28688e-05
7 *400:14 *1426:A 0
8 *511:8 *1426:A 0
*RES
1 *2621:Z *1426:A 37.75 
*END

*D_NET *1087 0.000437666
*CONN
*I *2199:A I *D XOR2_X1
*I *2622:Z O *D LOGIC0_X1
*CAP
1 *2199:A 0.000167826
2 *2622:Z 0.000167826
3 *2199:A *2031:A 0
4 *2199:A *2136:A1 9.4073e-06
5 *2199:A *2202:B2 1.44603e-05
6 *1489:A *2199:A 1.92163e-05
7 *1489:B *2199:A 2.87193e-05
8 *2199:B *2199:A 3.51654e-06
9 *2200:A *2199:A 2.66938e-05
*RES
1 *2622:Z *2199:A 41.8929 
*END

*D_NET *1088 0.000500963
*CONN
*I *2195:A I *D XNOR2_X1
*I *2623:Z O *D LOGIC0_X1
*CAP
1 *2195:A 0.000229598
2 *2623:Z 0.000229598
3 *2195:A *1735:A 0
4 *2195:A *2202:A1 0
5 *2194:A *2195:A 0
6 *2195:B *2195:A 2.76278e-05
7 *2196:A1 *2195:A 1.41383e-05
8 *311:8 *2195:A 0
*RES
1 *2623:Z *2195:A 44.8929 
*END

*D_NET *1089 0.000305947
*CONN
*I *2191:A I *D XNOR2_X1
*I *2624:Z O *D LOGIC0_X1
*CAP
1 *2191:A 0.000145011
2 *2624:Z 0.000145011
3 *2191:A *2188:A 5.75996e-06
4 *1479:A2 *2191:A 1.0164e-05
*RES
1 *2624:Z *2191:A 35.0357 
*END

*D_NET *1090 0.000299448
*CONN
*I *2188:A I *D XNOR2_X1
*I *2625:Z O *D LOGIC0_X1
*CAP
1 *2188:A 0.000146844
2 *2625:Z 0.000146844
3 *2188:A *1472:B2 0
4 *2189:A *2188:A 0
5 *2191:A *2188:A 5.75996e-06
*RES
1 *2625:Z *2188:A 24.6071 
*END

*D_NET *1091 0.000323967
*CONN
*I *2184:A I *D XNOR2_X1
*I *2626:Z O *D LOGIC0_X1
*CAP
1 *2184:A 0.000136846
2 *2626:Z 0.000136846
3 *2184:A *2206:A1 1.37673e-05
4 *2190:B *2184:A 0
5 *305:12 *2184:A 3.65076e-05
*RES
1 *2626:Z *2184:A 24.6071 
*END

*D_NET *1092 0.000393307
*CONN
*I *2173:A I *D XNOR2_X1
*I *2627:Z O *D LOGIC0_X1
*CAP
1 *2173:A 0.000185039
2 *2627:Z 0.000185039
3 *2173:A *1468:A 2.23871e-06
4 *2173:A *1587:A1 0
5 *2173:A *2218:A1 0
6 *1469:A *2173:A 0
7 *2173:B *2173:A 1.87418e-05
8 *289:10 *2173:A 2.24822e-06
*RES
1 *2627:Z *2173:A 28.8572 
*END

*D_NET *1093 0.000302741
*CONN
*I *2176:A I *D XOR2_X1
*I *2628:Z O *D LOGIC0_X1
*CAP
1 *2176:A 0.000151371
2 *2628:Z 0.000151371
3 *2181:B *2176:A 0
*RES
1 *2628:Z *2176:A 37.2143 
*END

*D_NET *1094 0.000547765
*CONN
*I *1557:A I *D XOR2_X1
*I *2605:Z O *D LOGIC0_X1
*CAP
1 *1557:A 0.000143798
2 *2605:Z 0.000143798
3 *1553:A *1557:A 0
4 *1553:B *1557:A 0.000260169
*RES
1 *2605:Z *1557:A 39.25 
*END

*D_NET *1095 0.000445574
*CONN
*I *2179:A I *D XNOR2_X2
*I *2629:Z O *D LOGIC0_X1
*CAP
1 *2179:A 0.000146363
2 *2629:Z 0.000146363
3 *2179:A *1807:A 0
4 *2179:B *2179:A 0.000140181
5 *2180:A *2179:A 0
6 *2184:B *2179:A 1.1025e-05
7 *2221:A *2179:A 1.64141e-06
*RES
1 *2629:Z *2179:A 28.7857 
*END

*D_NET *1096 0.000740475
*CONN
*I *1468:A I *D INV_X1
*I *2630:Z O *D LOGIC0_X1
*CAP
1 *1468:A 0.000173675
2 *2630:Z 0.000173675
3 *1468:A *1472:B2 1.3143e-06
4 *1468:A *1586:A1 5.23231e-05
5 *2173:A *1468:A 2.23871e-06
6 *2191:B *1468:A 6.32202e-06
7 *388:10 *1468:A 2.48863e-05
8 *390:8 *1468:A 0.000185383
9 *390:14 *1468:A 0.000120658
*RES
1 *2630:Z *1468:A 46.1072 
*END

*D_NET *1097 0.0004566
*CONN
*I *1543:A I *D XOR2_X1
*I *2606:Z O *D LOGIC0_X1
*CAP
1 *1543:A 0.000145864
2 *2606:Z 0.000145864
3 *1543:A *1418:81 6.99122e-05
4 *2247:D *1543:A 9.49605e-05
*RES
1 *2606:Z *1543:A 39.9286 
*END

*D_NET *1098 0.000465609
*CONN
*I *1547:A I *D XOR2_X1
*I *2350:Z O *D LOGIC1_X1
*CAP
1 *1547:A 0.000185662
2 *2350:Z 0.000185662
3 *1987:A *1547:A 3.34038e-05
4 *2010:A2 *1547:A 5.54369e-05
5 *2081:A1 *1547:A 0
6 *174:10 *1547:A 5.44551e-06
*RES
1 *2350:Z *1547:A 41.1429 
*END

*D_NET *1099 0.000397074
*CONN
*I *1541:A I *D XOR2_X1
*I *2351:Z O *D LOGIC1_X1
*CAP
1 *1541:A 0.000126024
2 *2351:Z 0.000126024
3 *1541:A *1542:A 0
4 *2039:B2 *1541:A 0.000107955
5 *766:10 *1541:A 3.7071e-05
*RES
1 *2351:Z *1541:A 37.2143 
*END

*D_NET *1100 0.000327377
*CONN
*I *1521:A I *D XNOR2_X1
*I *2607:Z O *D LOGIC0_X1
*CAP
1 *1521:A 0.000163642
2 *2607:Z 0.000163642
3 *61:92 *1521:A 0
4 *530:64 *1521:A 9.26023e-08
*RES
1 *2607:Z *1521:A 26.2143 
*END

*D_NET *1101 0.000337299
*CONN
*I *1528:A I *D XNOR2_X1
*I *2352:Z O *D LOGIC1_X1
*CAP
1 *1528:A 0.000162032
2 *2352:Z 0.000162032
3 *1528:A *1530:A 0
4 *1528:A *1248:27 0
5 *1528:B *1528:A 1.32348e-05
6 *511:56 *1528:A 0
*RES
1 *2352:Z *1528:A 25.8571 
*END

*D_NET *1102 0.00385604
*CONN
*I *2905:A I *D BUF_X4
*I *2904:A I *D BUF_X4
*I *2903:A I *D BUF_X4
*I *2902:A I *D BUF_X4
*I *2353:Z O *D BUF_X4
*CAP
1 *2905:A 1.28749e-05
2 *2904:A 1.0554e-05
3 *2903:A 0
4 *2902:A 0
5 *2353:Z 0
6 *1102:103 1.65527e-05
7 *1102:89 0.00021137
8 *1102:87 0.000692062
9 *1102:67 0.00035054
10 *1102:43 0.000203474
11 *1102:27 0.00106567
12 *1102:19 0.0010318
13 *1102:6 3.25793e-05
14 *1102:43 *1579:A2 0
15 *1102:43 *1246:12 3.13512e-06
16 *1102:43 *1246:23 1.84505e-06
17 *1102:67 *1545:A2 2.75047e-05
18 *1102:89 *1420:14 2.01229e-05
19 *1102:89 *1421:10 2.61927e-05
20 *1102:103 *1421:10 3.22796e-06
21 *1836:A4 *2905:A 0
22 *1839:B2 *1102:89 0
23 *1841:B1 *2904:A 3.58094e-06
24 *1922:A2 *1102:89 0
25 *1922:B1 *1102:89 1.25652e-05
26 *1923:A2 *1102:89 1.26943e-05
27 *2172:A *1102:89 0.000105896
28 *2172:A *1102:103 3.22796e-06
29 *171:12 *1102:19 6.48397e-06
30 *287:48 *2905:A 2.08416e-06
*RES
1 *2353:Z *1102:6 10 
2 *1102:6 *1102:19 13.7771 
3 *1102:19 *1102:27 26.85 
4 *1102:27 *1102:43 24.5768 
5 *1102:43 *2902:A 10 
6 *1102:27 *1102:67 21.3257 
7 *1102:67 *2903:A 10 
8 *1102:19 *1102:87 34.94 
9 *1102:87 *1102:89 27.4286 
10 *1102:89 *2904:A 11.25 
11 *1102:87 *1102:103 0.892857 
12 *1102:103 *2905:A 11.25 
*END

*D_NET *1103 0.000338625
*CONN
*I *1513:A I *D XNOR2_X1
*I *2608:Z O *D LOGIC0_X1
*CAP
1 *1513:A 0.000125064
2 *2608:Z 0.000125064
3 *1513:A *1947:A 0
4 *1537:A1 *1513:A 0
5 *99:37 *1513:A 1.27666e-06
6 *99:43 *1513:A 9.62051e-07
7 *99:56 *1513:A 8.62576e-05
8 *114:8 *1513:A 0
*RES
1 *2608:Z *1513:A 24.3571 
*END

*D_NET *1104 0.000465955
*CONN
*I *1568:A I *D AOI21_X1
*I *2514:Z O *D LOGIC0_X1
*CAP
1 *1568:A 0.000148336
2 *2514:Z 0.000148336
3 *1568:A *1566:A 7.27769e-05
4 *1568:A *1572:A2 1.83788e-06
5 *1566:B *1568:A 9.46688e-05
6 *1781:A2 *1568:A 0
7 *485:10 *1568:A 0
*RES
1 *2514:Z *1568:A 39.7857 
*END

*D_NET *1105 0.000373213
*CONN
*I *1518:A I *D XOR2_X1
*I *2524:Z O *D LOGIC0_X1
*CAP
1 *1518:A 9.41896e-05
2 *2524:Z 9.41896e-05
3 *1518:A *1535:A1 5.67661e-05
4 *1519:A *1518:A 8.1183e-06
5 *1535:A2 *1518:A 1.02238e-05
6 *1538:B2 *1518:A 9.57501e-05
7 *437:8 *1518:A 1.39755e-05
*RES
1 *2524:Z *1518:A 34.5 
*END

*D_NET *1106 0.000513386
*CONN
*I *1500:A1 I *D AND2_X1
*I *2525:Z O *D LOGIC0_X1
*CAP
1 *1500:A1 0.000106686
2 *2525:Z 0.000106686
3 *1497:B *1500:A1 0.000274763
4 *1501:B1 *1500:A1 2.52511e-05
5 *418:12 *1500:A1 0
6 *511:8 *1500:A1 0
*RES
1 *2525:Z *1500:A1 37.2143 
*END

*D_NET *1107 0.000492458
*CONN
*I *1496:A I *D XOR2_X1
*I *2526:Z O *D LOGIC0_X1
*CAP
1 *1496:A 0.000232414
2 *2526:Z 0.000232414
3 *1496:A *1504:B2 0
4 *1494:B *1496:A 0
5 *1501:A *1496:A 2.76303e-05
6 *1504:A *1496:A 0
7 *413:10 *1496:A 0
8 *414:10 *1496:A 0
*RES
1 *2526:Z *1496:A 45.8929 
*END

*D_NET *1108 0.000557788
*CONN
*I *1492:A1 I *D AND2_X1
*I *2527:Z O *D LOGIC0_X1
*CAP
1 *1492:A1 8.83027e-05
2 *2527:Z 8.83027e-05
3 *1492:A1 *1505:B2 1.81046e-05
4 *1492:A1 *2027:A1 4.40445e-05
5 *99:134 *1492:A1 0.000120408
6 *99:147 *1492:A1 0.000198626
7 *410:12 *1492:A1 0
*RES
1 *2527:Z *1492:A1 37.2857 
*END

*D_NET *1109 0.000733901
*CONN
*I *1487:A1 I *D NAND2_X1
*I *2528:Z O *D LOGIC0_X1
*CAP
1 *1487:A1 0.000157034
2 *2528:Z 0.000157034
3 *1487:A1 *1423:B2 0.000199168
4 *1487:A1 *1424:B2 0
5 *1487:A1 *1488:A 0
6 *1487:A1 *2201:A1 0
7 *1423:A *1487:A1 0.000120158
8 *1424:A *1487:A1 9.44188e-05
9 *1487:A2 *1487:A1 6.0887e-06
*RES
1 *2528:Z *1487:A1 43.8214 
*END

*D_NET *1110 0.000579041
*CONN
*I *1472:B2 I *D AOI21_X1
*I *2529:Z O *D LOGIC0_X1
*CAP
1 *1472:B2 0.000165031
2 *2529:Z 0.000165031
3 *1472:B2 *1587:A1 6.92212e-05
4 *1472:B2 *2175:A 7.35901e-06
5 *1468:A *1472:B2 1.3143e-06
6 *1586:A2 *1472:B2 6.78878e-05
7 *2188:A *1472:B2 0
8 *2191:B *1472:B2 8.25351e-05
9 *390:14 *1472:B2 2.06614e-05
*RES
1 *2529:Z *1472:B2 42.4643 
*END

*D_NET *1111 0.000437438
*CONN
*I *1467:A1 I *D NOR2_X1
*I *2530:Z O *D LOGIC0_X1
*CAP
1 *1467:A1 0.00015002
2 *2530:Z 0.00015002
3 *1467:A2 *1467:A1 5.62244e-05
4 *393:8 *1467:A1 8.11741e-05
*RES
1 *2530:Z *1467:A1 38.4286 
*END

*D_NET *1112 0.000400606
*CONN
*I *1461:A1 I *D AND2_X1
*I *2531:Z O *D LOGIC0_X1
*CAP
1 *1461:A1 0.000191743
2 *2531:Z 0.000191743
3 *1430:B *1461:A1 6.38328e-07
4 *1458:B *1461:A1 1.64805e-05
5 *371:12 *1461:A1 0
*RES
1 *2531:Z *1461:A1 41.1072 
*END

*D_NET *1113 0.000434988
*CONN
*I *1455:A1 I *D NAND2_X1
*I *2532:Z O *D LOGIC0_X1
*CAP
1 *1455:A1 0.000120974
2 *2532:Z 0.000120974
3 *1478:C1 *1455:A1 0.0001066
4 *1478:C2 *1455:A1 4.76443e-07
5 *1479:A2 *1455:A1 5.59765e-05
6 *1588:A3 *1455:A1 2.99872e-05
7 *1588:A4 *1455:A1 0
*RES
1 *2532:Z *1455:A1 37.8929 
*END

*D_NET *1114 0.00042903
*CONN
*I *1442:A1 I *D AND2_X1
*I *2533:Z O *D LOGIC0_X1
*CAP
1 *1442:A1 9.51694e-05
2 *2533:Z 9.51694e-05
3 *1442:A1 *1480:A 0.000238691
4 *1940:B *1442:A1 0
5 *1059:14 *1442:A1 0
*RES
1 *2533:Z *1442:A1 35.1786 
*END

*D_NET *1115 0.000848895
*CONN
*I *1563:A I *D OAI21_X1
*I *2515:Z O *D LOGIC0_X1
*CAP
1 *1563:A 0.000170857
2 *2515:Z 0.000170857
3 *1563:A *1563:B2 4.31956e-05
4 *1563:A *1745:A 9.62051e-07
5 *1563:A *1786:B2 1.04712e-05
6 *1563:A *1242:26 4.26218e-05
7 *1562:B *1563:A 5.32925e-06
8 *1563:B1 *1563:A 6.76015e-05
9 *1565:A1 *1563:A 1.90574e-06
10 *1575:B2 *1563:A 1.55241e-05
11 *481:10 *1563:A 0.000319569
*RES
1 *2515:Z *1563:A 46.5714 
*END

*D_NET *1116 0.000324134
*CONN
*I *1437:A1 I *D NAND2_X1
*I *2534:Z O *D LOGIC0_X1
*CAP
1 *1437:A1 0.000162067
2 *2534:Z 0.000162067
3 *1437:A1 *1432:A 0
4 *1438:B *1437:A1 0
5 *1446:B *1437:A1 0
6 *364:16 *1437:A1 0
*RES
1 *2534:Z *1437:A1 38.5714 
*END

*D_NET *1117 0.000391826
*CONN
*I *1433:A1 I *D NAND2_X1
*I *2535:Z O *D LOGIC0_X1
*CAP
1 *1433:A1 0.000192304
2 *2535:Z 0.000192304
3 *1433:A1 *1446:A 0
4 *1430:A *1433:A1 0
5 *1433:A2 *1433:A1 7.2187e-06
6 *351:8 *1433:A1 0
*RES
1 *2535:Z *1433:A1 40.4286 
*END

*D_NET *1118 0.000552517
*CONN
*I *1428:A1 I *D NAND2_X1
*I *2536:Z O *D LOGIC0_X1
*CAP
1 *1428:A1 0.000172132
2 *2536:Z 0.000172132
3 *1428:A1 *1456:A 0.000133405
4 *1429:B *1428:A1 3.65322e-06
5 *1451:A *1428:A1 2.16072e-07
6 *1479:A2 *1428:A1 6.97608e-05
7 *1483:B1 *1428:A1 0
8 *346:12 *1428:A1 1.21774e-06
9 *369:18 *1428:A1 0
*RES
1 *2536:Z *1428:A1 41.3572 
*END

*D_NET *1119 0.000475742
*CONN
*I *1423:B2 I *D OAI21_X1
*I *2537:Z O *D LOGIC0_X1
*CAP
1 *1423:B2 0.00011511
2 *2537:Z 0.00011511
3 *1423:B2 *1424:B2 1.61192e-05
4 *1423:B2 *1488:A 3.02351e-05
5 *1487:A1 *1423:B2 0.000199168
*RES
1 *2537:Z *1423:B2 37.8929 
*END

*D_NET *1120 0.000424505
*CONN
*I *1424:B2 I *D AOI21_X1
*I *2538:Z O *D LOGIC0_X1
*CAP
1 *1424:B2 0.000174154
2 *2538:Z 0.000174154
3 *1424:B2 *2198:A1 4.47984e-05
4 *1423:A *1424:B2 2.38077e-06
5 *1423:B2 *1424:B2 1.61192e-05
6 *1424:B1 *1424:B2 1.28987e-05
7 *1487:A1 *1424:B2 0
8 *2201:A2 *1424:B2 0
9 *316:8 *1424:B2 0
*RES
1 *2538:Z *1424:B2 41.8214 
*END

*D_NET *1121 0.000464567
*CONN
*I *2193:A I *D XNOR2_X1
*I *2539:Z O *D LOGIC0_X1
*CAP
1 *2193:A 0.000212473
2 *2539:Z 0.000212473
3 *1484:C2 *2193:A 0
4 *1590:A3 *2193:A 0
5 *2193:B *2193:A 3.96215e-05
*RES
1 *2539:Z *2193:A 31.6786 
*END

*D_NET *1122 0.000388812
*CONN
*I *2190:A I *D XNOR2_X1
*I *2540:Z O *D LOGIC0_X1
*CAP
1 *2190:A 0.000148921
2 *2540:Z 0.000148921
3 *2190:A *2210:A 1.16067e-05
4 *2211:A *2190:A 1.19592e-05
5 *2211:B1 *2190:A 1.31828e-05
6 *2211:B2 *2190:A 3.28714e-05
7 *305:12 *2190:A 0
8 *306:10 *2190:A 0
9 *340:12 *2190:A 2.13496e-05
*RES
1 *2540:Z *2190:A 37.3214 
*END

*D_NET *1123 0.000693175
*CONN
*I *2186:B2 I *D OAI21_X2
*I *2541:Z O *D LOGIC0_X1
*CAP
1 *2186:B2 0.000108538
2 *2541:Z 0.000108538
3 *2186:B2 *2206:A1 9.44188e-05
4 *2186:A *2186:B2 0.000235531
5 *2223:B2 *2186:B2 0
6 *299:8 *2186:B2 0.000146149
*RES
1 *2541:Z *2186:B2 39.9286 
*END

*D_NET *1124 0.000437678
*CONN
*I *2175:A I *D XNOR2_X1
*I *2542:Z O *D LOGIC0_X1
*CAP
1 *2175:A 0.000214042
2 *2542:Z 0.000214042
3 *1472:B2 *2175:A 7.35901e-06
4 *1589:A1 *2175:A 0
5 *1589:A2 *2175:A 2.23415e-06
6 *2175:B *2175:A 0
*RES
1 *2542:Z *2175:A 31.5714 
*END

*D_NET *1125 0.000465428
*CONN
*I *2178:A1 I *D AND2_X1
*I *2543:Z O *D LOGIC0_X1
*CAP
1 *2178:A1 0.000190453
2 *2543:Z 0.000190453
3 *2178:A1 *2214:A1 0
4 *2182:A *2178:A1 0
5 *2182:B1 *2178:A1 6.92191e-05
6 *2183:A1 *2178:A1 4.40064e-06
7 *2215:B1 *2178:A1 0
8 *2223:B2 *2178:A1 7.66675e-07
9 *294:8 *2178:A1 1.01361e-05
*RES
1 *2543:Z *2178:A1 42.0357 
*END

*D_NET *1126 0.000523991
*CONN
*I *1559:A I *D OAI21_X1
*I *2516:Z O *D LOGIC0_X1
*CAP
1 *1559:A 0.000188638
2 *2516:Z 0.000188638
3 *1559:A *1561:B1 3.03633e-05
4 *1559:A *1576:A2 2.52965e-06
5 *1559:A *1243:10 0
6 *1559:A *1243:12 0
7 *1558:A2 *1559:A 7.72792e-06
8 *1560:A1 *1559:A 2.90566e-07
9 *2029:A *1559:A 6.68482e-05
10 *2134:B2 *1559:A 0
11 *476:18 *1559:A 3.89548e-05
*RES
1 *2516:Z *1559:A 42.0357 
*END

*D_NET *1127 0.000274886
*CONN
*I *2181:A I *D XOR2_X2
*I *2544:Z O *D LOGIC0_X1
*CAP
1 *2181:A 0.000130557
2 *2544:Z 0.000130557
3 *2215:B2 *2181:A 1.37713e-05
4 *2217:B *2181:A 0
5 *297:6 *2181:A 0
*RES
1 *2544:Z *2181:A 23.1786 
*END

*D_NET *1128 0.000417722
*CONN
*I *1758:A I *D XOR2_X1
*I *2545:Z O *D LOGIC0_X1
*CAP
1 *1758:A 0.000205487
2 *2545:Z 0.000205487
3 *1758:A *1760:B2 6.74729e-06
4 *1758:A *1762:A 0
5 *1759:A2 *1758:A 0
6 *774:10 *1758:A 0
*RES
1 *2545:Z *1758:A 41.9643 
*END

*D_NET *1129 0.000746589
*CONN
*I *1554:A1 I *D NOR2_X1
*I *2517:Z O *D LOGIC0_X1
*CAP
1 *1554:A1 0.00019164
2 *2517:Z 0.00019164
3 *1554:A1 *1561:B1 0
4 *1554:A1 *1576:A2 3.47242e-06
5 *1554:A1 *1419:23 0
6 *1554:A2 *1554:A1 1.65011e-05
7 *1561:B2 *1554:A1 3.62612e-06
8 *1577:A *1554:A1 8.67587e-05
9 *1577:C2 *1554:A1 1.17587e-06
10 *1580:B1 *1554:A1 0
11 *2134:B2 *1554:A1 0.000154851
12 *472:14 *1554:A1 9.69234e-05
*RES
1 *2517:Z *1554:A1 46.8929 
*END

*D_NET *1130 0.00103705
*CONN
*I *1550:A1 I *D NAND2_X1
*I *2518:Z O *D LOGIC0_X1
*CAP
1 *1550:A1 0
2 *2518:Z 0.000203051
3 *1130:18 0.000203051
4 *1130:18 *1552:A 3.85883e-05
5 *1130:18 *1244:16 0.000185383
6 *1551:A1 *1130:18 4.92317e-06
7 *1551:A2 *1130:18 0.000107416
8 *1554:A2 *1130:18 1.28122e-06
9 *1556:A *1130:18 0
10 *1556:B1 *1130:18 4.43868e-06
11 *1578:A *1130:18 0.00028808
12 *1578:B1 *1130:18 0
13 *1580:B1 *1130:18 8.43215e-07
14 *2081:A1 *1130:18 0
*RES
1 *2518:Z *1130:18 48 
2 *1130:18 *1550:A1 5 
*END

*D_NET *1131 0.000762773
*CONN
*I *1544:B1 I *D OAI21_X1
*I *2519:Z O *D LOGIC0_X1
*CAP
1 *1544:B1 0
2 *2519:Z 0.000288908
3 *1131:14 0.000288908
4 *1131:14 *1544:B2 6.65423e-06
5 *1131:14 *1545:A1 3.24108e-07
6 *1131:14 *1579:A1 3.8736e-05
7 *1131:14 *1246:34 4.26902e-05
8 *1131:14 *1419:10 9.25123e-06
9 *1131:14 *1419:23 1.27666e-06
10 *1546:A2 *1131:14 9.55059e-06
11 *766:103 *1131:14 7.64751e-05
*RES
1 *2519:Z *1131:14 48.5 
2 *1131:14 *1544:B1 5 
*END

*D_NET *1132 0.000784815
*CONN
*I *1542:A I *D OAI21_X1
*I *2520:Z O *D LOGIC0_X1
*CAP
1 *1542:A 0.000197829
2 *2520:Z 0.000197829
3 *1541:A *1542:A 0
4 *1541:B *1542:A 0
5 *1848:A *1542:A 2.26406e-05
6 *1933:A *1542:A 0
7 *460:10 *1542:A 0.000366517
*RES
1 *2520:Z *1542:A 48.1429 
*END

*D_NET *1133 0.000554137
*CONN
*I *1531:B2 I *D AOI21_X1
*I *2521:Z O *D LOGIC0_X1
*CAP
1 *1531:B2 0.000145967
2 *2521:Z 0.000145967
3 *1528:B *1531:B2 4.46014e-06
4 *1529:A1 *1531:B2 2.19396e-05
5 *1529:A2 *1531:B2 5.10087e-06
6 *1531:A *1531:B2 8.11741e-05
7 *447:8 *1531:B2 2.66914e-05
8 *449:8 *1531:B2 4.80119e-06
9 *530:101 *1531:B2 0.000118035
*RES
1 *2521:Z *1531:B2 40.6072 
*END

*D_NET *1134 0.000522122
*CONN
*I *1523:A1 I *D NAND2_X1
*I *2522:Z O *D LOGIC0_X1
*CAP
1 *1523:A1 0.000197338
2 *2522:Z 0.000197338
3 *1523:A1 *1515:A1 0
4 *1523:A1 *1519:B2 0
5 *1520:A2 *1523:A1 2.16072e-07
6 *1534:B2 *1523:A1 1.96924e-05
7 *1538:B2 *1523:A1 0
8 *1584:B *1523:A1 0
9 *2058:B1 *1523:A1 2.2456e-05
10 *434:8 *1523:A1 0
11 *439:12 *1523:A1 5.56384e-05
12 *511:41 *1523:A1 2.94435e-05
*RES
1 *2522:Z *1523:A1 43.8214 
*END

*D_NET *1135 0.000464248
*CONN
*I *1515:A1 I *D AND2_X1
*I *2523:Z O *D LOGIC0_X1
*CAP
1 *1515:A1 0.000107071
2 *2523:Z 0.000107071
3 *1515:A1 *1519:B2 0.000250107
4 *1523:A1 *1515:A1 0
5 *1534:B2 *1515:A1 0
*RES
1 *2523:Z *1515:A1 35.8572 
*END

*D_NET *1136 0.000455492
*CONN
*I *1731:A I *D XNOR2_X1
*I *2582:Z O *D LOGIC0_X1
*CAP
1 *1731:A 0.000168814
2 *2582:Z 0.000168814
3 *1731:A *1739:A 0
4 *1731:A *1815:A 0
5 *1731:A *1821:C2 0
6 *1731:B *1731:A 1.26998e-05
7 *1740:A *1731:A 2.9676e-05
8 *1740:B1 *1731:A 1.88334e-06
9 *1740:B2 *1731:A 0
10 *1740:C1 *1731:A 1.30236e-05
11 *1740:C2 *1731:A 1.76461e-05
12 *1796:A *1731:A 4.0688e-05
13 *650:10 *1731:A 2.24822e-06
14 *652:10 *1731:A 0
*RES
1 *2582:Z *1731:A 39.6429 
*END

*D_NET *1137 0.000492429
*CONN
*I *1808:A I *D XNOR2_X1
*I *2583:Z O *D LOGIC0_X1
*CAP
1 *1808:A 0.000242403
2 *2583:Z 0.000242403
3 *1808:A *1809:A 4.15369e-06
4 *1807:B *1808:A 0
5 *1818:A1 *1808:A 0
6 *1819:A *1808:A 0
7 *2180:B *1808:A 0
8 *2217:C2 *1808:A 0
9 *727:8 *1808:A 3.46977e-06
*RES
1 *2583:Z *1808:A 34.5714 
*END

*D_NET *1138 0.000468111
*CONN
*I *1805:A I *D XNOR2_X1
*I *2584:Z O *D LOGIC0_X1
*CAP
1 *1805:A 0.00021753
2 *2584:Z 0.00021753
3 *1805:A *1804:A 1.26567e-05
4 *1805:A *1815:A 6.48216e-07
5 *1816:A1 *1805:A 3.20076e-06
6 *1821:A *1805:A 1.65458e-05
7 *1821:C1 *1805:A 0
*RES
1 *2584:Z *1805:A 42.7143 
*END

*D_NET *1139 0.000450315
*CONN
*I *1798:A I *D XNOR2_X1
*I *2585:Z O *D LOGIC0_X1
*CAP
1 *1798:A 0.000205564
2 *2585:Z 0.000205564
3 *1798:A *1812:A 4.73284e-06
4 *1813:A1 *1798:A 3.44527e-05
*RES
1 *2585:Z *1798:A 31.3572 
*END

*D_NET *1140 0.000357231
*CONN
*I *1727:A I *D INV_X1
*I *2586:Z O *D LOGIC0_X1
*CAP
1 *1727:A 0.000146239
2 *2586:Z 0.000146239
3 *1727:A *1801:A 0
4 *1688:B *1727:A 0
5 *1729:A2 *1727:A 3.49085e-06
6 *1730:B *1727:A 6.1261e-05
*RES
1 *2586:Z *1727:A 37.8929 
*END

*D_NET *1141 0.00058879
*CONN
*I *1714:A I *D INV_X1
*I *2587:Z O *D LOGIC0_X1
*CAP
1 *1714:A 0.000214304
2 *2587:Z 0.000214304
3 *1714:A *1635:A 0
4 *1714:A *1672:A1 0
5 *1715:B *1714:A 0.000160182
6 *1716:A2 *1714:A 0
7 *634:8 *1714:A 0
8 *636:10 *1714:A 0
*RES
1 *2587:Z *1714:A 45.1786 
*END

*D_NET *1142 0.000441632
*CONN
*I *1710:A I *D INV_X1
*I *2588:Z O *D LOGIC0_X1
*CAP
1 *1710:A 0.000187038
2 *2588:Z 0.000187038
3 *1710:A *1718:C2 8.6587e-06
4 *1710:A *1825:A1 2.68115e-05
5 *1718:C1 *1710:A 5.27503e-06
6 *1719:A1 *1710:A 2.68094e-05
7 *1719:B2 *1710:A 0
8 *630:10 *1710:A 0
*RES
1 *2588:Z *1710:A 42.0357 
*END

*D_NET *1143 0.000657846
*CONN
*I *1704:A I *D INV_X1
*I *2589:Z O *D LOGIC0_X1
*CAP
1 *1704:A 0.00016723
2 *2589:Z 0.00016723
3 *1704:A *1728:A 0
4 *1688:B *1704:A 2.12997e-05
5 *1728:B *1704:A 0.000302085
6 *647:10 *1704:A 0
7 *742:12 *1704:A 0
*RES
1 *2589:Z *1704:A 43.8572 
*END

*D_NET *1144 0.000590796
*CONN
*I *1701:A1 I *D NAND2_X1
*I *2590:Z O *D LOGIC0_X1
*CAP
1 *1701:A1 0.000161834
2 *2590:Z 0.000161834
3 *1701:A1 *1702:A 6.97608e-05
4 *1701:A2 *1701:A1 9.52084e-05
5 *1703:B *1701:A1 5.11191e-06
6 *1722:A *1701:A1 0
7 *621:8 *1701:A1 9.70469e-05
*RES
1 *2590:Z *1701:A1 43.3214 
*END

*D_NET *1145 0.000491075
*CONN
*I *1687:A I *D INV_X1
*I *2591:Z O *D LOGIC0_X1
*CAP
1 *1687:A 0.000167562
2 *2591:Z 0.000167562
3 *1689:A1 *1687:A 0.000146397
4 *1689:A2 *1687:A 9.55318e-06
*RES
1 *2591:Z *1687:A 41.3572 
*END

*D_NET *1146 0.000412435
*CONN
*I *1684:A I *D XNOR2_X1
*I *2592:Z O *D LOGIC0_X1
*CAP
1 *1684:A 0.000168031
2 *2592:Z 0.000168031
3 *1684:A *1683:A 6.0406e-05
4 *1684:A *1782:A 0
5 *1693:C1 *1684:A 0
6 *1753:B *1684:A 0
7 *602:6 *1684:A 1.59673e-05
*RES
1 *2592:Z *1684:A 38.9643 
*END

*D_NET *1147 0.000464736
*CONN
*I *1680:A I *D XNOR2_X1
*I *2593:Z O *D LOGIC0_X1
*CAP
1 *1680:A 0.000213105
2 *2593:Z 0.000213105
3 *1680:A *1679:A 2.48889e-05
4 *1680:A *1681:B2 0
5 *1680:A *1685:A1 3.82997e-06
6 *1680:A *1686:A 0
7 *1680:A *1692:A 6.15405e-06
8 *1685:A2 *1680:A 3.65322e-06
9 *1686:B *1680:A 0
*RES
1 *2593:Z *1680:A 32.7143 
*END

*D_NET *1148 0.000353742
*CONN
*I *1677:A I *D XNOR2_X1
*I *2594:Z O *D LOGIC0_X1
*CAP
1 *1677:A 0.000176385
2 *2594:Z 0.000176385
3 *1677:A *1676:A 0
4 *1677:A *1682:B2 9.11897e-09
5 *1677:A *1724:B2 0
6 *1677:A *1779:A 0
7 *1679:B *1677:A 0
8 *1726:A *1677:A 0
9 *596:12 *1677:A 9.62051e-07
10 *597:12 *1677:A 0
*RES
1 *2594:Z *1677:A 36.6429 
*END

*D_NET *1149 0.000312822
*CONN
*I *1644:A I *D INV_X1
*I *2595:Z O *D LOGIC0_X1
*CAP
1 *1644:A 0.000156411
2 *2595:Z 0.000156411
3 *1644:A *1648:A1 0
4 *1644:A *1672:A1 0
5 *1645:B *1644:A 0
6 *1672:A2 *1644:A 0
7 *1676:B *1644:A 0
8 *566:10 *1644:A 0
*RES
1 *2595:Z *1644:A 37.2143 
*END

*D_NET *1150 0.00048066
*CONN
*I *1639:A I *D INV_X1
*I *2596:Z O *D LOGIC0_X1
*CAP
1 *1639:A 0.000208099
2 *2596:Z 0.000208099
3 *1639:A *1640:A 3.85541e-05
4 *1639:A *1642:A 3.69646e-06
5 *1641:A1 *1639:A 7.63367e-06
6 *1642:B *1639:A 1.45779e-05
7 *577:10 *1639:A 0
*RES
1 *2596:Z *1639:A 43.3929 
*END

*D_NET *1151 0.000306053
*CONN
*I *1636:A I *D XOR2_X1
*I *2597:Z O *D LOGIC0_X1
*CAP
1 *1636:A 0.000132857
2 *2597:Z 0.000132857
3 *1636:A *1655:A1 4.03382e-05
4 *555:14 *1636:A 0
*RES
1 *2597:Z *1636:A 36.5357 
*END

*D_NET *1152 0.000313946
*CONN
*I *1632:A I *D XNOR2_X1
*I *2598:Z O *D LOGIC0_X1
*CAP
1 *1632:A 0.000134409
2 *2598:Z 0.000134409
3 *1632:A *1634:A 0
4 *1632:B *1632:A 4.51285e-05
5 *553:10 *1632:A 0
*RES
1 *2598:Z *1632:A 24.3571 
*END

*D_NET *1153 0.000656334
*CONN
*I *1628:A I *D XOR2_X1
*I *2599:Z O *D LOGIC0_X1
*CAP
1 *1628:A 0.000165076
2 *2599:Z 0.000165076
3 *1628:A *1627:A 0
4 *1628:A *1258:9 0.000326181
5 *1620:B *1628:A 0
6 *1668:A *1628:A 0
7 *1668:B1 *1628:A 0
8 *547:10 *1628:A 0
*RES
1 *2599:Z *1628:A 41.9643 
*END

*D_NET *1154 0.000469966
*CONN
*I *1621:A I *D XNOR2_X1
*I *2600:Z O *D LOGIC0_X1
*CAP
1 *1621:A 0.000180922
2 *2600:Z 0.000180922
3 *1621:A *1622:A 5.09779e-05
4 *1621:A *1668:B2 0
5 *1669:B2 *1621:A 0
6 *539:10 *1621:A 0
7 *540:6 *1621:A 5.71431e-05
*RES
1 *2600:Z *1621:A 31.1072 
*END

*D_NET *1155 0.000591578
*CONN
*I *1625:A I *D XOR2_X1
*I *2601:Z O *D LOGIC0_X1
*CAP
1 *1625:A 0.000263555
2 *2601:Z 0.000263555
3 *1625:A *1771:C1 5.59765e-05
4 *1625:A *1772:A 0
5 *1625:B *1625:A 7.72537e-06
6 *1774:A2 *1625:A 7.66675e-07
7 *543:8 *1625:A 0
8 *684:19 *1625:A 0
*RES
1 *2601:Z *1625:A 48.3214 
*END

*D_NET *1156 0.000521019
*CONN
*I *1618:A I *D XOR2_X1
*I *2602:Z O *D LOGIC0_X1
*CAP
1 *1618:A 0.000121816
2 *2602:Z 0.000121816
3 *1617:B *1618:A 0.000146647
4 *1664:A2 *1618:A 3.78433e-05
5 *1855:B *1618:A 3.89308e-05
6 *751:8 *1618:A 5.39662e-05
*RES
1 *2602:Z *1618:A 40.2857 
*END

*D_NET *1157 0.000536676
*CONN
*I *1566:A I *D XOR2_X1
*I *2603:Z O *D LOGIC0_X1
*CAP
1 *1566:A 0.000136719
2 *2603:Z 0.000136719
3 *1566:A *1568:B2 6.92898e-05
4 *1566:A *1572:A2 5.16435e-05
5 *1566:A *1572:B3 7.72537e-06
6 *1566:A *1231:31 0
7 *1566:A *1241:27 4.32298e-05
8 *1566:B *1566:A 1.40196e-06
9 *1568:A *1566:A 7.27769e-05
10 *1573:A2 *1566:A 1.71706e-05
11 *485:10 *1566:A 0
*RES
1 *2603:Z *1566:A 41.2143 
*END

*D_NET *1158 0.000661539
*CONN
*I *1779:A I *D AOI211_X1
*I *2575:Z O *D LOGIC0_X1
*CAP
1 *1779:A 0.000215174
2 *2575:Z 0.000215174
3 *1779:A *1682:B2 8.8323e-06
4 *1779:A *1780:A 0.000138169
5 *1779:A *1780:C2 2.16072e-07
6 *1566:B *1779:A 0
7 *1677:A *1779:A 0
8 *1778:B *1779:A 0
9 *1779:C1 *1779:A 3.09143e-06
10 *1780:B *1779:A 8.08825e-05
11 *598:20 *1779:A 0
12 *697:10 *1779:A 0
*RES
1 *2575:Z *1779:A 48.7143 
*END

*D_NET *1159 0.000904109
*CONN
*I *1755:A1 I *D AND2_X1
*I *2576:Z O *D LOGIC0_X1
*CAP
1 *1755:A1 9.3191e-05
2 *2576:Z 9.3191e-05
3 *1755:A1 *1754:A 1.0968e-05
4 *1755:A1 *1782:A 4.24381e-05
5 *1755:A1 *1782:B2 0.000326745
6 *1570:B *1755:A1 0
7 *1754:B *1755:A1 0.000313997
8 *1755:A2 *1755:A1 6.83806e-06
9 *1784:B2 *1755:A1 7.19036e-06
10 *673:19 *1755:A1 9.55059e-06
*RES
1 *2576:Z *1755:A1 42.7143 
*END

*D_NET *1160 0.000793169
*CONN
*I *1784:A1 I *D OAI33_X1
*I *2577:Z O *D LOGIC0_X1
*CAP
1 *1784:A1 6.57752e-05
2 *2577:Z 6.57752e-05
3 *1784:A1 *1753:A 0.000198074
4 *1784:A1 *1784:A2 0.000337595
5 *1753:B *1784:A1 0.00012148
6 *672:8 *1784:A1 4.47034e-06
*RES
1 *2577:Z *1784:A1 38.5714 
*END

*D_NET *1161 0.000518143
*CONN
*I *1786:B2 I *D OAI21_X1
*I *2578:Z O *D LOGIC0_X1
*CAP
1 *1786:B2 0.000145453
2 *2578:Z 0.000145453
3 *1786:B2 *1786:A 1.54398e-06
4 *1786:B2 *1790:A1 9.57492e-07
5 *1786:B2 *1790:A2 0.000110982
6 *1562:B *1786:B2 2.44346e-05
7 *1563:A *1786:B2 1.04712e-05
8 *1745:B *1786:B2 3.04959e-05
9 *1786:B1 *1786:B2 4.77786e-06
10 *1790:A3 *1786:B2 2.50882e-05
11 *481:10 *1786:B2 7.66675e-07
12 *704:8 *1786:B2 1.20695e-05
13 *704:21 *1786:B2 5.64879e-06
*RES
1 *2578:Z *1786:B2 42.0714 
*END

*D_NET *1162 0.00036501
*CONN
*I *1744:A I *D INV_X1
*I *2579:Z O *D LOGIC0_X1
*CAP
1 *1744:A 7.36669e-05
2 *2579:Z 7.36669e-05
3 *1744:A *1748:A1 0.000108745
4 *1744:A *1297:18 1.31814e-05
5 *2029:B *1744:A 9.57501e-05
6 *2029:S *1744:A 0
7 *2140:A *1744:A 0
8 *2140:B *1744:A 0
*RES
1 *2579:Z *1744:A 32.4643 
*END

*D_NET *1163 0.000382567
*CONN
*I *1742:A I *D XNOR2_X1
*I *2580:Z O *D LOGIC0_X1
*CAP
1 *1742:A 0.000172147
2 *2580:Z 0.000172147
3 *1742:A *1750:A 3.72904e-06
4 *1751:A1 *1742:A 9.62051e-07
5 *2137:B *1742:A 0
6 *2202:A2 *1742:A 0
7 *660:12 *1742:A 3.35822e-05
*RES
1 *2580:Z *1742:A 27.8571 
*END

*D_NET *1164 0.000409786
*CONN
*I *1734:A I *D INV_X1
*I *2581:Z O *D LOGIC0_X1
*CAP
1 *1734:A 0.000193201
2 *2581:Z 0.000193201
3 *1734:A *1794:A 0
4 *1736:A1 *1734:A 2.33831e-05
5 *1794:B *1734:A 0
6 *656:10 *1734:A 0
*RES
1 *2581:Z *1734:A 41.1429 
*END

*D_NET *1165 0.000478262
*CONN
*I *1765:A I *D XOR2_X1
*I *2346:Z O *D LOGIC1_X1
*CAP
1 *1765:A 0.000165305
2 *2346:Z 0.000165305
3 *1765:A *1624:A 2.51151e-05
4 *1765:A *1771:C2 4.82788e-05
5 *1765:A *1258:9 0
6 *1765:A *1413:14 1.26998e-05
7 *1765:B *1765:A 3.09143e-06
8 *1769:B *1765:A 5.84677e-05
*RES
1 *2346:Z *1765:A 41.3929 
*END

*D_NET *1166 0.000443614
*CONN
*I *1730:A I *D XNOR2_X1
*I *2553:Z O *D LOGIC0_X1
*CAP
1 *1730:A 0.000143131
2 *2553:Z 0.000143131
3 *1730:A *1683:A 9.57638e-05
4 *1730:A *1732:A1 4.69092e-05
5 *649:10 *1730:A 1.46782e-05
*RES
1 *2553:Z *1730:A 38.8572 
*END

*D_NET *1167 0.000358592
*CONN
*I *1807:A I *D XNOR2_X1
*I *2554:Z O *D LOGIC0_X1
*CAP
1 *1807:A 0.000177749
2 *2554:Z 0.000177749
3 *1807:A *1817:A 3.09411e-06
4 *2179:A *1807:A 0
5 *2195:B *1807:A 0
*RES
1 *2554:Z *1807:A 27.8571 
*END

*D_NET *1168 0.000387275
*CONN
*I *1804:A I *D XNOR2_X1
*I *2555:Z O *D LOGIC0_X1
*CAP
1 *1804:A 0.000177793
2 *2555:Z 0.000177793
3 *1804:A *1688:A 0
4 *1805:A *1804:A 1.26567e-05
5 *1816:A1 *1804:A 0
6 *1821:A *1804:A 0
7 *1821:C1 *1804:A 0
8 *723:8 *1804:A 1.90317e-05
9 *724:8 *1804:A 0
*RES
1 *2555:Z *1804:A 38.25 
*END

*D_NET *1169 0.000276066
*CONN
*I *1797:A I *D XNOR2_X1
*I *2556:Z O *D LOGIC0_X1
*CAP
1 *1797:A 0.000138033
2 *2556:Z 0.000138033
3 *1807:B *1797:A 0
*RES
1 *2556:Z *1797:A 23.6786 
*END

*D_NET *1170 0.000496099
*CONN
*I *1728:A I *D XNOR2_X1
*I *2557:Z O *D LOGIC0_X1
*CAP
1 *1728:A 0.000174375
2 *2557:Z 0.000174375
3 *1728:A *1800:A 1.45415e-05
4 *1704:A *1728:A 0
5 *1728:B *1728:A 4.06674e-05
6 *1800:B *1728:A 7.40837e-05
7 *1811:A2 *1728:A 0
8 *647:10 *1728:A 1.80564e-05
9 *719:12 *1728:A 0
*RES
1 *2557:Z *1728:A 31.3572 
*END

*D_NET *1171 0.00040195
*CONN
*I *1715:A I *D XNOR2_X1
*I *2558:Z O *D LOGIC0_X1
*CAP
1 *1715:A 0.000180333
2 *2558:Z 0.000180333
3 *1716:A2 *1715:A 1.37673e-05
4 *1718:A *1715:A 1.88906e-05
5 *1825:A2 *1715:A 0
6 *634:8 *1715:A 5.11118e-06
7 *636:10 *1715:A 3.51536e-06
8 *636:14 *1715:A 0
*RES
1 *2558:Z *1715:A 29.2143 
*END

*D_NET *1172 0.000259412
*CONN
*I *1711:A I *D XNOR2_X1
*I *2559:Z O *D LOGIC0_X1
*CAP
1 *1711:A 9.81699e-05
2 *2559:Z 9.81699e-05
3 *1711:B *1711:A 0
4 *630:10 *1711:A 6.30726e-05
*RES
1 *2559:Z *1711:A 21.1071 
*END

*D_NET *1173 0.000374207
*CONN
*I *1705:A I *D XNOR2_X1
*I *2560:Z O *D LOGIC0_X1
*CAP
1 *1705:A 0.000154741
2 *2560:Z 0.000154741
3 *1705:A *1707:A 2.6197e-05
4 *1705:A *1811:A1 0
5 *1705:B *1705:A 1.92742e-05
6 *1802:A *1705:A 1.92536e-05
*RES
1 *2560:Z *1705:A 27.3571 
*END

*D_NET *1174 0.000350284
*CONN
*I *1700:A I *D XOR2_X1
*I *2561:Z O *D LOGIC0_X1
*CAP
1 *1700:A 0.000172108
2 *2561:Z 0.000172108
3 *1701:A2 *1700:A 0
4 *619:10 *1700:A 6.06867e-06
5 *742:12 *1700:A 0
*RES
1 *2561:Z *1700:A 38.5714 
*END

*D_NET *1175 0.000280831
*CONN
*I *1688:A I *D XNOR2_X1
*I *2562:Z O *D LOGIC0_X1
*CAP
1 *1688:A 0.00013248
2 *2562:Z 0.00013248
3 *1688:A *1690:A 5.75996e-06
4 *1804:A *1688:A 0
5 *1804:B *1688:A 9.62051e-07
6 *723:8 *1688:A 9.14865e-06
*RES
1 *2562:Z *1688:A 23.6786 
*END

*D_NET *1176 0.00046698
*CONN
*I *1762:A I *D XOR2_X1
*I *2347:Z O *D LOGIC1_X1
*CAP
1 *1762:A 0.00020286
2 *2347:Z 0.00020286
3 *1762:A *1764:A1 0
4 *1758:A *1762:A 0
5 *1762:B *1762:A 4.54723e-06
6 *1776:B2 *1762:A 0
7 *1776:C2 *1762:A 0
8 *1777:C2 *1762:A 0
9 *1856:A *1762:A 5.41831e-05
10 *1861:A1 *1762:A 0
11 *681:10 *1762:A 2.52965e-06
12 *682:8 *1762:A 0
*RES
1 *2347:Z *1762:A 42.4643 
*END

*D_NET *1177 0.000440591
*CONN
*I *1683:A I *D XNOR2_X1
*I *2563:Z O *D LOGIC0_X1
*CAP
1 *1683:A 0.000119969
2 *2563:Z 0.000119969
3 *1684:A *1683:A 6.0406e-05
4 *1730:A *1683:A 9.57638e-05
5 *649:10 *1683:A 4.44836e-05
*RES
1 *2563:Z *1683:A 28.1072 
*END

*D_NET *1178 0.000464296
*CONN
*I *1679:A I *D XNOR2_X1
*I *2564:Z O *D LOGIC0_X1
*CAP
1 *1679:A 0.000200905
2 *2564:Z 0.000200905
3 *1679:B *1679:A 8.26038e-06
4 *1680:A *1679:A 2.48889e-05
5 *598:20 *1679:A 2.93382e-05
*RES
1 *2564:Z *1679:A 32.7143 
*END

*D_NET *1179 0.000281743
*CONN
*I *1676:A I *D XNOR2_X1
*I *2565:Z O *D LOGIC0_X1
*CAP
1 *1676:A 0.000138635
2 *2565:Z 0.000138635
3 *1676:A *1761:A1 4.47286e-06
4 *1677:A *1676:A 0
5 *595:10 *1676:A 0
*RES
1 *2565:Z *1676:A 23.6786 
*END

*D_NET *1180 0.000318573
*CONN
*I *1645:A I *D XNOR2_X1
*I *2566:Z O *D LOGIC0_X1
*CAP
1 *1645:A 0.000139446
2 *2566:Z 0.000139446
3 *1645:A *1647:A 5.11118e-06
4 *1724:A *1645:A 3.41146e-05
5 *1726:B *1645:A 0
6 *564:10 *1645:A 4.55948e-07
7 *748:10 *1645:A 0
*RES
1 *2566:Z *1645:A 25.0357 
*END

*D_NET *1181 0.000370241
*CONN
*I *1640:A I *D XNOR2_X1
*I *2567:Z O *D LOGIC0_X1
*CAP
1 *1640:A 0.000105129
2 *2567:Z 0.000105129
3 *1640:A *1642:A 5.0798e-05
4 *1639:A *1640:A 3.85541e-05
5 *1641:A1 *1640:A 0
6 *559:8 *1640:A 5.01029e-05
7 *561:10 *1640:A 2.05275e-05
*RES
1 *2567:Z *1640:A 24.3571 
*END

*D_NET *1182 0.000401376
*CONN
*I *1635:A I *D XOR2_X1
*I *2568:Z O *D LOGIC0_X1
*CAP
1 *1635:A 0.000189666
2 *2568:Z 0.000189666
3 *1635:B *1635:A 0
4 *1714:A *1635:A 0
5 *1715:B *1635:A 1.58933e-05
6 *554:6 *1635:A 6.15137e-06
*RES
1 *2568:Z *1635:A 40.9643 
*END

*D_NET *1183 0.000312043
*CONN
*I *1631:A I *D XNOR2_X1
*I *2569:Z O *D LOGIC0_X1
*CAP
1 *1631:A 0.000136477
2 *2569:Z 0.000136477
3 *1653:A1 *1631:A 0
4 *1657:A1 *1631:A 0
5 *1657:A2 *1631:A 0
6 *550:10 *1631:A 3.90891e-05
*RES
1 *2569:Z *1631:A 24.3571 
*END

*D_NET *1184 0.000413922
*CONN
*I *1627:A I *D XOR2_X1
*I *2570:Z O *D LOGIC0_X1
*CAP
1 *1627:A 0.000168642
2 *2570:Z 0.000168642
3 *1627:A *1667:A1 1.7678e-05
4 *1627:A *1668:B2 2.32458e-06
5 *1628:A *1627:A 0
6 *1628:B *1627:A 0
7 *1667:A2 *1627:A 2.82685e-05
8 *1668:B1 *1627:A 1.34851e-06
9 *1669:B2 *1627:A 4.85844e-06
10 *546:8 *1627:A 2.04813e-05
11 *547:10 *1627:A 1.67832e-06
*RES
1 *2570:Z *1627:A 40.2857 
*END

*D_NET *1185 0.000278203
*CONN
*I *1620:A I *D XNOR2_X1
*I *2571:Z O *D LOGIC0_X1
*CAP
1 *1620:A 0.000138623
2 *2571:Z 0.000138623
3 *1620:A *1668:B2 0
4 *539:10 *1620:A 9.57492e-07
*RES
1 *2571:Z *1620:A 23.6786 
*END

*D_NET *1186 0.000451792
*CONN
*I *1624:A I *D XOR2_X1
*I *2572:Z O *D LOGIC0_X1
*CAP
1 *1624:A 0.000203894
2 *2572:Z 0.000203894
3 *1624:A *1771:C1 0
4 *1624:A *1258:9 0
5 *1624:A *1413:14 3.52448e-06
6 *1765:A *1624:A 2.51151e-05
7 *1765:B *1624:A 1.53648e-05
*RES
1 *2572:Z *1624:A 43.3214 
*END

*D_NET *1187 0.000351168
*CONN
*I *1569:A I *D XOR2_X1
*I *2348:Z O *D LOGIC1_X1
*CAP
1 *1569:A 0.000117066
2 *2348:Z 0.000117066
3 *1569:A *1570:A 4.64787e-05
4 *1569:A *1327:14 2.5504e-06
5 *1567:A2 *1569:A 0
6 *488:10 *1569:A 6.80063e-05
*RES
1 *2348:Z *1569:A 37.2143 
*END

*D_NET *1188 0.000531223
*CONN
*I *1617:A I *D XOR2_X1
*I *2573:Z O *D LOGIC0_X1
*CAP
1 *1617:A 0.000186752
2 *2573:Z 0.000186752
3 *1856:A *1617:A 0
4 *1856:B *1617:A 0
5 *751:8 *1617:A 0.000157719
*RES
1 *2573:Z *1617:A 45.0357 
*END

*D_NET *1189 0.000678572
*CONN
*I *1759:A1 I *D NAND2_X1
*I *2574:Z O *D LOGIC0_X1
*CAP
1 *1759:A1 0.000148283
2 *2574:Z 0.000148283
3 *1759:A1 *1725:A 0
4 *1759:A1 *1760:A 0.000274744
5 *1759:A1 *1761:A1 3.57834e-05
6 *1759:A1 *1761:A2 5.54369e-05
7 *1758:B *1759:A1 1.90574e-06
8 *1759:A2 *1759:A1 8.43215e-07
9 *1762:B *1759:A1 1.32929e-05
10 *1777:A *1759:A1 0
*RES
1 *2574:Z *1759:A1 43.3929 
*END

*D_NET *1190 0.000324134
*CONN
*I *1778:A I *D XOR2_X1
*I *2546:Z O *D LOGIC0_X1
*CAP
1 *1778:A 0.000162067
2 *2546:Z 0.000162067
3 *1778:A *1779:C2 0
*RES
1 *2546:Z *1778:A 38.5714 
*END

*D_NET *1191 0.00033843
*CONN
*I *1754:A I *D XOR2_X1
*I *2547:Z O *D LOGIC0_X1
*CAP
1 *1754:A 0.000133099
2 *2547:Z 0.000133099
3 *1754:A *1782:B2 2.56243e-06
4 *1570:B *1754:A 5.68681e-05
5 *1754:B *1754:A 1.83411e-06
6 *1755:A1 *1754:A 1.0968e-05
*RES
1 *2547:Z *1754:A 36.8929 
*END

*D_NET *1192 0.000471609
*CONN
*I *1753:A I *D XOR2_X1
*I *2548:Z O *D LOGIC0_X1
*CAP
1 *1753:A 0.000103191
2 *2548:Z 0.000103191
3 *1784:A1 *1753:A 0.000198074
4 *1784:A3 *1753:A 3.0227e-05
5 *1785:B *1753:A 0
6 *672:8 *1753:A 3.69264e-05
*RES
1 *2548:Z *1753:A 36.5357 
*END

*D_NET *1193 0.000307517
*CONN
*I *1785:A I *D XOR2_X1
*I *2549:Z O *D LOGIC0_X1
*CAP
1 *1785:A 0.000145149
2 *2549:Z 0.000145149
3 *1849:A *1785:A 1.72191e-05
4 *1849:B *1785:A 0
5 *1850:B *1785:A 0
*RES
1 *2549:Z *1785:A 37.2143 
*END

*D_NET *1194 0.000457379
*CONN
*I *1745:A I *D XNOR2_X1
*I *2550:Z O *D LOGIC0_X1
*CAP
1 *1745:A 0.000181111
2 *2550:Z 0.000181111
3 *1745:A *1747:A 2.73619e-05
4 *1562:A *1745:A 0
5 *1563:A *1745:A 9.62051e-07
6 *1745:B *1745:A 7.72537e-06
7 *1746:A1 *1745:A 0
8 *1746:A2 *1745:A 0
9 *664:8 *1745:A 5.91072e-05
*RES
1 *2550:Z *1745:A 30.8572 
*END

*D_NET *1195 0.000459466
*CONN
*I *1741:A I *D XNOR2_X1
*I *2551:Z O *D LOGIC0_X1
*CAP
1 *1741:A 0.000208988
2 *2551:Z 0.000208988
3 *2138:B *1741:A 1.40196e-06
4 *2200:A *1741:A 3.78407e-05
5 *2200:B *1741:A 2.24822e-06
6 *316:8 *1741:A 0
*RES
1 *2551:Z *1741:A 31.3572 
*END

*D_NET *1196 0.00036984
*CONN
*I *1735:A I *D XNOR2_X1
*I *2552:Z O *D LOGIC0_X1
*CAP
1 *1735:A 0.000175549
2 *2552:Z 0.000175549
3 *1735:B *1735:A 1.87418e-05
4 *2195:A *1735:A 0
*RES
1 *2552:Z *1735:A 27.8571 
*END

*D_NET *1197 0.000612367
*CONN
*I *1766:A2 I *D NOR3_X1
*I *2482:Z O *D LOGIC0_X1
*CAP
1 *1766:A2 0.000110543
2 *2482:Z 0.000110543
3 *1766:A2 *1766:A1 1.08108e-05
4 *1766:A2 *1772:A 0.000142443
5 *1766:A2 *1230:19 4.57324e-05
6 *1766:A3 *1766:A2 7.19036e-06
7 *1768:A *1766:A2 7.14654e-06
8 *1772:B1 *1766:A2 2.96955e-05
9 *1774:A2 *1766:A2 3.28903e-05
10 *684:19 *1766:A2 0.000115373
*RES
1 *2482:Z *1766:A2 40.6786 
*END

*D_NET *1198 0.000633863
*CONN
*I *1732:A1 I *D NAND2_X1
*I *2492:Z O *D LOGIC0_X1
*CAP
1 *1732:A1 0.000149571
2 *2492:Z 0.000149571
3 *1732:A1 *1739:A 0.00028697
4 *1732:A1 *1787:B1 0
5 *1732:A1 *1788:A1 0
6 *1732:A1 *1788:A2 0
7 *1730:A *1732:A1 4.69092e-05
8 *1732:A2 *1732:A1 8.43215e-07
*RES
1 *2492:Z *1732:A1 42.7143 
*END

*D_NET *1199 0.000335632
*CONN
*I *1809:A I *D XNOR2_X1
*I *2493:Z O *D LOGIC0_X1
*CAP
1 *1809:A 0.000123764
2 *2493:Z 0.000123764
3 *1808:A *1809:A 4.15369e-06
4 *1808:B *1809:A 3.65322e-06
5 *1818:A1 *1809:A 0
6 *1819:A *1809:A 0
7 *1820:A2 *1809:A 4.06765e-05
8 *727:8 *1809:A 3.96215e-05
*RES
1 *2493:Z *1809:A 24.6071 
*END

*D_NET *1200 0.000371111
*CONN
*I *1806:A I *D XNOR2_X1
*I *2494:Z O *D LOGIC0_X1
*CAP
1 *1806:A 0.000149312
2 *2494:Z 0.000149312
3 *1806:B *1806:A 1.8031e-05
4 *1820:A2 *1806:A 9.3409e-06
5 *1821:A *1806:A 9.62051e-07
6 *1821:B *1806:A 4.4154e-05
*RES
1 *2494:Z *1806:A 27.3571 
*END

*D_NET *1201 0.000683638
*CONN
*I *1799:A1 I *D AND2_X1
*I *2495:Z O *D LOGIC0_X1
*CAP
1 *1799:A1 0.000148037
2 *2495:Z 0.000148037
3 *1799:A1 *1802:B2 0.000324122
4 *1799:A2 *1799:A1 5.54348e-05
5 *1802:A *1799:A1 6.48216e-07
6 *718:8 *1799:A1 7.35912e-06
*RES
1 *2495:Z *1799:A1 42.0357 
*END

*D_NET *1202 0.000459112
*CONN
*I *1801:A I *D XOR2_X1
*I *2496:Z O *D LOGIC0_X1
*CAP
1 *1801:A 0.000212309
2 *2496:Z 0.000212309
3 *1727:A *1801:A 0
4 *1801:B *1801:A 7.72537e-06
5 *1804:B *1801:A 0
6 *1811:A2 *1801:A 0
7 *719:12 *1801:A 2.67697e-05
8 *742:10 *1801:A 0
*RES
1 *2496:Z *1801:A 41.9643 
*END

*D_NET *1203 0.000404583
*CONN
*I *1718:B2 I *D AOI221_X1
*I *2497:Z O *D LOGIC0_X1
*CAP
1 *1718:B2 0.000126573
2 *2497:Z 0.000126573
3 *1718:B2 *1825:A1 0.000108205
4 *1718:B2 *1826:A1 4.32319e-05
5 *748:10 *1718:B2 0
*RES
1 *2497:Z *1718:B2 35.8572 
*END

*D_NET *1204 0.000225114
*CONN
*I *1713:A1 I *D NOR2_X1
*I *2498:Z O *D LOGIC0_X1
*CAP
1 *1713:A1 5.85795e-05
2 *2498:Z 5.85795e-05
3 *1713:A1 *1824:A1 0.000107955
4 *1719:A1 *1713:A1 0
*RES
1 *2498:Z *1713:A1 28.3929 
*END

*D_NET *1205 0.000390065
*CONN
*I *1708:B2 I *D AOI21_X1
*I *2499:Z O *D LOGIC0_X1
*CAP
1 *1708:B2 0.000195032
2 *2499:Z 0.000195032
*RES
1 *2499:Z *1708:B2 41.9643 
*END

*D_NET *1206 0.000262175
*CONN
*I *1703:A I *D XNOR2_X1
*I *2500:Z O *D LOGIC0_X1
*CAP
1 *1703:A 8.36255e-05
2 *2500:Z 8.36255e-05
3 *1709:A2 *1703:A 7.35445e-06
4 *1721:A1 *1703:A 5.52959e-06
5 *1721:A2 *1703:A 5.41857e-05
6 *1722:A *1703:A 1.74882e-05
7 *622:6 *1703:A 1.03664e-05
*RES
1 *2500:Z *1703:A 21.1071 
*END

*D_NET *1207 0.000585111
*CONN
*I *1691:B2 I *D AOI21_X1
*I *2501:Z O *D LOGIC0_X1
*CAP
1 *1691:B2 0.000112863
2 *2501:Z 0.000112863
3 *1691:B2 *1685:A1 7.68793e-05
4 *1691:A *1691:B2 2.38892e-05
5 *1693:A *1691:B2 8.19658e-05
6 *1693:B2 *1691:B2 4.62745e-06
7 *1698:A *1691:B2 0.000100276
8 *605:12 *1691:B2 6.92191e-05
9 *609:8 *1691:B2 2.52965e-06
*RES
1 *2501:Z *1691:B2 40.6786 
*END

*D_NET *1208 0.000563235
*CONN
*I *1764:A1 I *D AND2_X1
*I *2483:Z O *D LOGIC0_X1
*CAP
1 *1764:A1 0.000122256
2 *2483:Z 0.000122256
3 *1764:A1 *1775:A1 0.000261637
4 *1764:A1 *1231:40 1.90574e-06
5 *1762:A *1764:A1 0
6 *1764:A2 *1764:A1 2.39679e-06
7 *1775:A2 *1764:A1 9.55318e-06
8 *1776:B2 *1764:A1 4.32298e-05
*RES
1 *2483:Z *1764:A1 38.6429 
*END

*D_NET *1209 0.000661895
*CONN
*I *1685:A1 I *D NAND2_X1
*I *2502:Z O *D LOGIC0_X1
*CAP
1 *1685:A1 0.00014341
2 *2502:Z 0.00014341
3 *1685:A1 *1686:A 2.23871e-06
4 *1685:A1 *1692:A 8.38944e-05
5 *1680:A *1685:A1 3.82997e-06
6 *1685:A2 *1685:A1 1.21774e-06
7 *1691:B2 *1685:A1 7.68793e-05
8 *1693:A *1685:A1 2.1091e-05
9 *603:12 *1685:A1 0
10 *605:12 *1685:A1 0.000185923
*RES
1 *2502:Z *1685:A1 45.3929 
*END

*D_NET *1210 0.000583718
*CONN
*I *1681:B2 I *D OAI21_X1
*I *2503:Z O *D LOGIC0_X1
*CAP
1 *1681:B2 0.000272134
2 *2503:Z 0.000272134
3 *1681:B2 *1694:A1 0
4 *1681:B2 *1695:A 0
5 *1681:B2 *1699:C2 0
6 *1680:A *1681:B2 0
7 *1680:B *1681:B2 4.10984e-06
8 *1681:B1 *1681:B2 2.79748e-06
9 *1682:A *1681:B2 2.12265e-05
10 *1696:B1 *1681:B2 1.13153e-05
11 *1696:B2 *1681:B2 0
12 *599:8 *1681:B2 0
13 *599:27 *1681:B2 0
*RES
1 *2503:Z *1681:B2 49.75 
*END

*D_NET *1211 0.000584197
*CONN
*I *1678:A I *D XOR2_X1
*I *2504:Z O *D LOGIC0_X1
*CAP
1 *1678:A 0.000135041
2 *2504:Z 0.000135041
3 *1678:A *1724:B2 8.66136e-05
4 *1678:B *1678:A 4.04707e-06
5 *1679:B *1678:A 0.000133403
6 *1724:A *1678:A 0
7 *596:12 *1678:A 9.00517e-05
*RES
1 *2504:Z *1678:A 43 
*END

*D_NET *1212 0.000403532
*CONN
*I *1648:A1 I *D AND2_X1
*I *2505:Z O *D LOGIC0_X1
*CAP
1 *1648:A1 0.000154162
2 *2505:Z 0.000154162
3 *1644:A *1648:A1 0
4 *1672:A2 *1648:A1 9.52084e-05
5 *1832:A2 *1648:A1 0
*RES
1 *2505:Z *1648:A1 38.6429 
*END

*D_NET *1213 0.000526471
*CONN
*I *1643:A1 I *D NOR2_X1
*I *2506:Z O *D LOGIC0_X1
*CAP
1 *1643:A1 0.000181427
2 *2506:Z 0.000181427
3 *1643:A1 *1649:C1 9.8611e-06
4 *1643:A2 *1643:A1 8.15234e-06
5 *1649:A *1643:A1 0
6 *1649:B *1643:A1 8.43644e-06
7 *1650:A1 *1643:A1 0
8 *1650:A2 *1643:A1 0
9 *1651:B2 *1643:A1 0
10 *1675:A2 *1643:A1 4.48009e-05
11 *557:8 *1643:A1 2.1122e-05
12 *561:10 *1643:A1 3.28688e-05
13 *562:8 *1643:A1 3.83757e-05
*RES
1 *2506:Z *1643:A1 43.9286 
*END

*D_NET *1214 0.000294477
*CONN
*I *1637:A I *D XNOR2_X1
*I *2507:Z O *D LOGIC0_X1
*CAP
1 *1637:A 0.000147239
2 *2507:Z 0.000147239
3 *1637:A *1655:A1 0
4 *555:14 *1637:A 0
*RES
1 *2507:Z *1637:A 24.3571 
*END

*D_NET *1215 0.000718993
*CONN
*I *1633:A1 I *D NAND2_X1
*I *2508:Z O *D LOGIC0_X1
*CAP
1 *1633:A1 0.000107593
2 *2508:Z 0.000107593
3 *1633:A1 *1652:A 0.000289341
4 *1632:B *1633:A1 0
5 *1633:A2 *1633:A1 7.23153e-05
6 *550:10 *1633:A1 0
7 *551:10 *1633:A1 0.000142152
*RES
1 *2508:Z *1633:A1 40.6786 
*END

*D_NET *1216 0.00054834
*CONN
*I *1629:C2 I *D OAI211_X1
*I *2509:Z O *D LOGIC0_X1
*CAP
1 *1629:C2 0.000109679
2 *2509:Z 0.000109679
3 *1629:C2 *1665:A1 0.000182215
4 *1629:A *1629:C2 2.1906e-05
5 *1630:A *1629:C2 3.25683e-05
6 *1665:A2 *1629:C2 9.22938e-05
*RES
1 *2509:Z *1629:C2 37.8929 
*END

*D_NET *1217 0.000440648
*CONN
*I *1622:A I *D XNOR2_X1
*I *2510:Z O *D LOGIC0_X1
*CAP
1 *1622:A 0.000167952
2 *2510:Z 0.000167952
3 *1621:A *1622:A 5.09779e-05
4 *1622:B *1622:A 1.78501e-05
5 *1664:B2 *1622:A 0
6 *1669:B1 *1622:A 0
7 *1670:C2 *1622:A 1.80284e-05
8 *542:25 *1622:A 1.78869e-05
*RES
1 *2510:Z *1622:A 29.6429 
*END

*D_NET *1218 0.000512513
*CONN
*I *1626:A I *D XOR2_X1
*I *2511:Z O *D LOGIC0_X1
*CAP
1 *1626:A 0.000178971
2 *2511:Z 0.000178971
3 *1626:A *1662:B2 4.16057e-05
4 *1626:A *1665:A1 7.66675e-07
5 *1626:B *1626:A 1.06418e-05
6 *1662:A *1626:A 9.44188e-05
7 *1662:B1 *1626:A 1.39232e-06
8 *544:8 *1626:A 5.74663e-06
9 *693:8 *1626:A 0
*RES
1 *2511:Z *1626:A 42.2143 
*END

*D_NET *1219 0.000721429
*CONN
*I *1760:A I *D OAI21_X1
*I *2484:Z O *D LOGIC0_X1
*CAP
1 *1760:A 5.99806e-05
2 *2484:Z 5.99806e-05
3 *1760:A *1725:A 0
4 *1760:A *1761:A1 0.000326723
5 *1759:A1 *1760:A 0.000274744
*RES
1 *2484:Z *1760:A 37.2143 
*END

*D_NET *1220 0.000349303
*CONN
*I *1619:A1 I *D NAND2_X1
*I *2512:Z O *D LOGIC0_X1
*CAP
1 *1619:A1 0.000121284
2 *2512:Z 0.000121284
3 *1671:A2 *1619:A1 0
4 *1832:A2 *1619:A1 2.47684e-05
5 *751:8 *1619:A1 8.19658e-05
*RES
1 *2512:Z *1619:A1 35.1786 
*END

*D_NET *1221 0.000636793
*CONN
*I *1570:A I *D AOI211_X1
*I *2513:Z O *D LOGIC0_X1
*CAP
1 *1570:A 0.000165289
2 *2513:Z 0.000165289
3 *1570:A *1571:A2 2.08098e-06
4 *1570:A *1756:A 0.000160184
5 *1570:A *1327:14 4.66389e-05
6 *1569:A *1570:A 4.64787e-05
7 *1569:B *1570:A 1.25407e-05
8 *1570:B *1570:A 2.70696e-05
9 *1570:C1 *1570:A 1.1222e-05
*RES
1 *2513:Z *1570:A 44.75 
*END

*D_NET *1222 0.000420686
*CONN
*I *1779:C2 I *D AOI211_X1
*I *2485:Z O *D LOGIC0_X1
*CAP
1 *1779:C2 6.26146e-05
2 *2485:Z 6.26146e-05
3 *1779:C2 *1780:C2 0.000238691
4 *1778:A *1779:C2 0
5 *1778:B *1779:C2 0
6 *697:10 *1779:C2 5.67661e-05
*RES
1 *2485:Z *1779:C2 32.4643 
*END

*D_NET *1223 0.00034112
*CONN
*I *1757:A1 I *D NOR2_X1
*I *2486:Z O *D LOGIC0_X1
*CAP
1 *1757:A1 0.00017056
2 *2486:Z 0.00017056
3 *1685:A2 *1757:A1 0
*RES
1 *2486:Z *1757:A1 37.8929 
*END

*D_NET *1224 0.000636911
*CONN
*I *1784:A2 I *D OAI33_X1
*I *2487:Z O *D LOGIC0_X1
*CAP
1 *1784:A2 0.000136319
2 *2487:Z 0.000136319
3 *1753:B *1784:A2 2.04476e-05
4 *1784:A1 *1784:A2 0.000337595
5 *1784:A3 *1784:A2 2.39679e-06
6 *1784:B1 *1784:A2 2.14856e-06
7 *1789:A1 *1784:A2 1.68643e-06
*RES
1 *2487:Z *1784:A2 41.3572 
*END

*D_NET *1225 0.000512091
*CONN
*I *1786:A I *D OAI21_X1
*I *2488:Z O *D LOGIC0_X1
*CAP
1 *1786:A 0.000158926
2 *2488:Z 0.000158926
3 *1786:A *1739:A 1.76926e-06
4 *1786:A *1787:B2 6.05428e-06
5 *1786:A *1788:A1 8.05795e-05
6 *1786:A *1788:B2 2.96899e-05
7 *1786:A *1790:A1 2.90592e-05
8 *1745:B *1786:A 0
9 *1786:B1 *1786:A 1.25189e-05
10 *1786:B2 *1786:A 1.54398e-06
11 *1788:B1 *1786:A 3.20586e-05
12 *704:8 *1786:A 9.66611e-07
*RES
1 *2488:Z *1786:A 43.1786 
*END

*D_NET *1226 0.000461194
*CONN
*I *1748:A1 I *D AND2_X1
*I *2489:Z O *D LOGIC0_X1
*CAP
1 *1748:A1 0.000133502
2 *2489:Z 0.000133502
3 *1748:A1 *1297:18 1.90574e-06
4 *1744:A *1748:A1 0.000108745
5 *1746:A1 *1748:A1 6.56996e-05
6 *1746:A2 *1748:A1 0
7 *1748:A2 *1748:A1 2.75346e-06
8 *1791:A2 *1748:A1 0
9 *666:8 *1748:A1 1.50871e-05
*RES
1 *2489:Z *1748:A1 39.3214 
*END

*D_NET *1227 0.000580889
*CONN
*I *1743:A I *D XOR2_X1
*I *2490:Z O *D LOGIC0_X1
*CAP
1 *1743:A 0.000270048
2 *2490:Z 0.000270048
3 *1749:B2 *1743:A 0
4 *1752:B1 *1743:A 1.76665e-06
5 *1793:A *1743:A 0
6 *1793:B *1743:A 2.88181e-05
7 *1793:C1 *1743:A 1.02088e-05
8 *1796:B1 *1743:A 0
9 *667:8 *1743:A 0
*RES
1 *2490:Z *1743:A 48.5714 
*END

*D_NET *1228 0.000443698
*CONN
*I *1738:B2 I *D AOI21_X1
*I *2491:Z O *D LOGIC0_X1
*CAP
1 *1738:B2 0.000160102
2 *2491:Z 0.000160102
3 *1738:B2 *1794:A 6.82202e-07
4 *1738:B1 *1738:B2 1.21774e-06
5 *1740:B2 *1738:B2 4.45934e-05
6 *1752:A *1738:B2 2.89806e-05
7 *1794:B *1738:B2 2.13261e-05
8 *1795:A2 *1738:B2 2.66938e-05
*RES
1 *2491:Z *1738:B2 40.4286 
*END

*D_NET *1229 0.00131233
*CONN
*I *1767:A I *D OAI21_X1
*I *1865:B I *D MUX2_X1
*I *1770:A1 I *D OR3_X1
*I *1912:A I *D INV_X1
*I *2234:Q O *D DFFR_X1
*CAP
1 *1767:A 0
2 *1865:B 0.000157072
3 *1770:A1 1.27385e-05
4 *1912:A 0.000100477
5 *2234:Q 4.45481e-05
6 *1229:36 0.000242582
7 *1229:21 0.000245822
8 *1229:8 0.000292599
9 *1770:A1 *1413:14 8.43215e-07
10 *1865:B *1234:58 2.16072e-07
11 *1912:A *2235:CK 0
12 *1229:8 *2235:CK 8.62655e-06
13 *1229:21 *1770:A2 0.000102467
14 *1229:21 *2235:CK 0
15 *1229:36 *1770:A2 6.32461e-06
16 *1229:36 *1413:14 1.0958e-05
17 *1767:B1 *1865:B 2.98439e-06
18 *1767:B1 *1229:36 2.54388e-05
19 *1767:B2 *1229:21 0
20 *1767:B2 *1229:36 0
21 *1768:A *1229:36 0
22 *1771:A *1229:36 3.48838e-06
23 *1771:B1 *1229:36 0
24 *1771:B2 *1229:36 1.72191e-05
25 *1774:A2 *1229:36 1.74002e-05
26 *1867:A *1865:B 1.25215e-05
27 *1913:A *1912:A 2.23415e-06
28 *1913:B2 *1912:A 5.76745e-06
*RES
1 *2234:Q *1229:8 14.75 
2 *1229:8 *1912:A 20.3214 
3 *1229:8 *1229:21 19.25 
4 *1229:21 *1770:A1 11.25 
5 *1229:21 *1229:36 16.7857 
6 *1229:36 *1865:B 20.9286 
7 *1229:36 *1767:A 5 
*END

*D_NET *1230 0.00169348
*CONN
*I *1766:A1 I *D NOR3_X1
*I *1772:B2 I *D AOI21_X1
*I *1773:A1 I *D NOR2_X1
*I *1857:B I *D MUX2_X1
*I *1920:A I *D INV_X1
*I *2235:Q O *D DFFR_X1
*CAP
1 *1766:A1 7.75537e-05
2 *1772:B2 1.15061e-05
3 *1773:A1 4.02851e-05
4 *1857:B 0.000251502
5 *1920:A 6.62568e-05
6 *2235:Q 0
7 *1230:25 0.000328678
8 *1230:21 4.83964e-05
9 *1230:19 0.000249899
10 *1230:6 0.000238602
11 *1766:A1 *1661:A1 0
12 *1766:A1 *1772:A 5.76385e-05
13 *1857:B *1857:A 2.16072e-07
14 *1766:A2 *1766:A1 1.08108e-05
15 *1766:A2 *1230:19 4.57324e-05
16 *1767:B1 *1230:19 0
17 *1767:B2 *1920:A 3.18842e-05
18 *1767:B2 *1230:19 6.83382e-05
19 *1768:A *1230:19 2.62371e-06
20 *1772:B1 *1772:B2 1.21774e-06
21 *1773:A2 *1772:B2 1.60038e-06
22 *1773:A2 *1230:25 5.11574e-06
23 *1774:A1 *1766:A1 0
24 *1774:B1 *1766:A1 6.76378e-05
25 *1774:B1 *1773:A1 3.06181e-06
26 *1864:A *1857:B 0
27 *1865:S *1857:B 4.97191e-06
28 *1921:B2 *1920:A 0
29 *61:14 *1920:A 7.87811e-06
30 *693:8 *1857:B 0
31 *766:223 *1857:B 1.78914e-05
32 *766:227 *1857:B 5.41857e-05
*RES
1 *2235:Q *1230:6 10 
2 *1230:6 *1920:A 18.0714 
3 *1230:6 *1230:19 23.3214 
4 *1230:19 *1230:21 5 
5 *1230:21 *1230:25 8.75 
6 *1230:25 *1857:B 36.6786 
7 *1230:25 *1773:A1 14.3214 
8 *1230:21 *1772:B2 6.25 
9 *1230:19 *1766:A1 21.6786 
*END

*D_NET *1231 0.0025779
*CONN
*I *1763:A1 I *D OR2_X1
*I *1776:C1 I *D AOI221_X1
*I *1852:B I *D MUX2_X1
*I *1878:A I *D INV_X1
*I *2236:Q O *D DFFR_X1
*CAP
1 *1763:A1 2.52235e-05
2 *1776:C1 9.8478e-06
3 *1852:B 0.000201405
4 *1878:A 8.30371e-05
5 *2236:Q 3.20321e-05
6 *1231:40 0.000130591
7 *1231:31 0.000466838
8 *1231:21 0.000575505
9 *1231:8 0.000329622
10 *1852:B *1570:C2 1.76005e-05
11 *1231:21 *1775:A1 0.000100504
12 *1231:31 *1570:C2 0
13 *1231:31 *1857:A 1.10223e-05
14 *1231:31 *1241:10 5.70553e-05
15 *1231:40 *1775:A1 1.97138e-05
16 *1566:A *1231:31 0
17 *1573:B1 *1231:31 2.80734e-05
18 *1763:A2 *1763:A1 2.75346e-06
19 *1764:A1 *1231:40 1.90574e-06
20 *1775:A2 *1231:40 8.27554e-05
21 *1776:A *1776:C1 1.11792e-06
22 *1776:C2 *1776:C1 1.21774e-06
23 *1853:A *1852:B 2.39679e-06
24 *1856:A *1763:A1 0
25 *1879:B2 *1878:A 3.37215e-05
26 *1879:B2 *1231:8 0
27 *2107:A2 *1878:A 0
28 *2107:A2 *1231:21 0
29 *2108:A2 *1878:A 0
30 *2108:A2 *1231:8 5.01029e-05
31 *2242:RN *1231:31 0
32 *61:24 *1878:A 1.47939e-05
33 *61:24 *1231:8 1.34605e-05
34 *61:28 *1878:A 1.07429e-05
35 *492:8 *1852:B 0.000103552
36 *682:8 *1763:A1 4.26902e-05
37 *682:8 *1231:40 0.000128615
38 *768:12 *1852:B 0
*RES
1 *2236:Q *1231:8 14.75 
2 *1231:8 *1878:A 20.4286 
3 *1231:8 *1231:21 26.0357 
4 *1231:21 *1231:31 43.8929 
5 *1231:31 *1852:B 29.25 
6 *1231:21 *1231:40 14.5 
7 *1231:40 *1776:C1 11.25 
8 *1231:40 *1763:A1 13.5357 
*END

*D_NET *1232 0.0011968
*CONN
*P busy O
*I *1881:A I *D MUX2_X1
*I *2233:Q O *D DFFR_X1
*CAP
1 busy 0.000385156
2 *1881:A 4.92708e-05
3 *2233:Q 3.0663e-05
4 *1232:8 0.00046509
5 busy *1420:62 1.02238e-05
6 *1881:A *1420:62 8.06372e-06
7 *1880:A busy 2.27161e-05
8 *1880:A *1232:8 3.25065e-06
9 *1881:B *1881:A 1.45225e-05
10 *1881:B *1232:8 1.46266e-05
11 *1881:S *1881:A 8.43215e-07
12 *2233:D busy 0.000117477
13 *2233:D *1881:A 2.87248e-06
14 *2233:D *1232:8 5.56848e-05
15 *2233:RN *1881:A 1.63351e-05
*RES
1 *2233:Q *1232:8 15 
2 *1232:8 busy 46.4822 
3 *1232:8 *1881:A 16.1786 
*END

*D_NET *1233 0.00472879
*CONN
*P clk I
*I *2353:A I *D BUF_X4
*CAP
1 clk 0.000418144
2 *2353:A 3.0075e-05
3 *1233:34 5.86793e-05
4 *1233:30 0.00190104
5 *1233:16 0.00229058
6 *157:10 *2353:A 0
7 *171:12 *1233:34 3.02673e-05
8 *524:287 *2353:A 0
*RES
1 clk *1233:16 32.1743 
2 *1233:16 *1233:30 49.6325 
3 *1233:30 *1233:34 9.10714 
4 *1233:34 *2353:A 7.75 
*END

*D_NET *1234 0.00257633
*CONN
*I *1865:A I *D MUX2_X1
*I *1572:B3 I *D OAI33_X1
*I *1570:C2 I *D AOI211_X1
*I *2241:Q O *D DFFR_X1
*CAP
1 *1865:A 0
2 *1572:B3 2.61783e-05
3 *1570:C2 0.000160223
4 *2241:Q 0.000167773
5 *1234:58 0.000472425
6 *1234:20 0.000332447
7 *1234:16 0.000786244
8 *1570:C2 *1567:A1 3.98132e-05
9 *1572:B3 *1567:A1 7.19036e-06
10 *1572:B3 *1568:B2 3.23723e-07
11 *1572:B3 *1241:10 4.12796e-06
12 *1572:B3 *1241:27 5.64879e-06
13 *1234:16 *2243:CK 1.24565e-05
14 *1234:20 *1241:10 3.85068e-05
15 *1234:58 *1862:A 1.46907e-05
16 *1234:58 *2242:CK 6.39696e-06
17 *1234:58 *2243:CK 1.0537e-05
18 *1566:A *1572:B3 7.72537e-06
19 *1567:A2 *1570:C2 1.13879e-05
20 *1570:C1 *1570:C2 4.50083e-05
21 *1572:B1 *1570:C2 4.66361e-05
22 *1572:B2 *1570:C2 1.52083e-06
23 *1572:B2 *1572:B3 2.39679e-06
24 *1573:A1 *1570:C2 1.03664e-05
25 *1573:A2 *1570:C2 1.71005e-05
26 *1852:B *1570:C2 1.76005e-05
27 *1860:A2 *1234:58 9.57948e-06
28 *1865:B *1234:58 2.16072e-07
29 *1865:S *1234:58 2.39679e-06
30 *1867:A *1234:58 7.67361e-06
31 *1871:B1 *1234:16 0
32 *1871:B1 *1234:58 0
33 *1871:B2 *1234:16 1.03423e-05
34 *1873:A2 *1234:16 0
35 *2104:A2 *1234:16 2.57909e-05
36 *2111:A1 *1234:16 4.29819e-05
37 *2242:D *1234:58 3.90891e-05
38 *50:14 *1234:16 1.90192e-05
39 *50:14 *1234:58 0
40 *51:12 *1234:16 0.000171599
41 *53:8 *1234:16 2.91785e-06
42 *61:227 *1234:16 0
43 *492:8 *1570:C2 0
44 *1231:31 *1570:C2 0
*RES
1 *2241:Q *1234:16 38.1072 
2 *1234:16 *1234:20 20.8571 
3 *1234:20 *1570:C2 41.4643 
4 *1234:20 *1572:B3 13.3571 
5 *1234:16 *1234:58 48.75 
6 *1234:58 *1865:A 5 
*END

*D_NET *1235 0.00114586
*CONN
*I *1536:A I *D INV_X1
*I *1955:A I *D MUX2_X1
*I *1514:A I *D XNOR2_X1
*I *2251:Q O *D DFFR_X1
*CAP
1 *1536:A 0
2 *1955:A 0.000303517
3 *1514:A 6.09993e-06
4 *2251:Q 2.47221e-05
5 *1235:23 0.000352504
6 *1235:8 7.98092e-05
7 *1955:A *1952:A 0
8 *1537:A1 *1235:23 7.62912e-06
9 *1946:A *1955:A 1.32732e-05
10 *2022:B1 *1955:A 0
11 *2023:A *1955:A 0
12 *2055:B *1955:A 0
13 *2056:A1 *1235:23 0
14 *2056:A2 *1955:A 3.99416e-05
15 *2058:B1 *1514:A 2.52965e-06
16 *2058:B1 *1235:23 1.92897e-06
17 *99:45 *1955:A 5.62265e-05
18 *99:45 *1235:8 0
19 *99:88 *1955:A 1.87392e-05
20 *119:12 *1955:A 5.69557e-06
21 *189:8 *1955:A 0
22 *190:10 *1955:A 1.92742e-05
23 *433:14 *1514:A 7.19036e-06
24 *433:14 *1955:A 1.62705e-06
25 *433:14 *1235:8 1.72426e-05
26 *433:14 *1235:23 4.01803e-05
27 *524:31 *1235:8 2.4406e-05
28 *524:31 *1235:23 6.70982e-05
29 *524:37 *1235:8 5.62244e-05
*RES
1 *2251:Q *1235:8 14.3214 
2 *1235:8 *1514:A 10.75 
3 *1235:8 *1235:23 12.3929 
4 *1235:23 *1955:A 49.3929 
5 *1235:23 *1536:A 5 
*END

*D_NET *1236 0.00104062
*CONN
*I *1517:A I *D XNOR2_X1
*I *1947:A I *D MUX2_X1
*I *1539:A I *D INV_X1
*I *2252:Q O *D DFFR_X1
*CAP
1 *1517:A 0
2 *1947:A 0.000317411
3 *1539:A 1.34522e-05
4 *2252:Q 0.000122736
5 *1236:17 0.000360445
6 *1236:8 0.000179222
7 *1513:A *1947:A 0
8 *1518:B *1947:A 2.52965e-06
9 *1535:A2 *1947:A 0
10 *1540:A *1947:A 0
11 *1540:C1 *1539:A 3.88456e-06
12 *1540:C1 *1947:A 0
13 *1540:C1 *1236:17 0
14 *2050:B2 *1947:A 0
15 *2252:RN *1539:A 0
16 *2252:RN *1236:8 0
17 *99:16 *1236:8 0
18 *99:37 *1947:A 7.72537e-06
19 *99:43 *1947:A 2.75346e-06
20 *436:6 *1947:A 3.04646e-05
*RES
1 *2252:Q *1236:8 17.2143 
2 *1236:8 *1539:A 6.60714 
3 *1236:8 *1236:17 4.25 
4 *1236:17 *1947:A 36.9286 
5 *1236:17 *1517:A 5 
*END

*D_NET *1237 0.000697182
*CONN
*I *1498:A1 I *D AND2_X1
*I *1499:A I *D XOR2_X1
*I *1940:A I *D MUX2_X1
*I *2253:Q O *D DFFR_X1
*CAP
1 *1498:A1 3.81379e-05
2 *1499:A 0
3 *1940:A 7.65845e-05
4 *2253:Q 0
5 *1237:25 0.000195597
6 *1237:4 0.000234044
7 *1439:A *1940:A 0
8 *1494:A *1498:A1 7.66905e-06
9 *1497:A *1237:25 0
10 *1497:B *1237:25 0
11 *1498:A2 *1498:A1 5.43615e-05
12 *1940:B *1940:A 1.67645e-05
13 *110:14 *1940:A 0
14 *110:14 *1237:25 0
15 *416:10 *1237:25 6.89712e-05
16 *511:16 *1940:A 5.05238e-06
*RES
1 *2253:Q *1237:4 5 
2 *1237:4 *1940:A 23.0714 
3 *1237:4 *1237:25 28.2857 
4 *1237:25 *1499:A 5 
5 *1237:25 *1498:A1 10.25 
*END

*D_NET *1238 0.000602539
*CONN
*I *1502:A I *D INV_X1
*I *1495:A I *D XNOR2_X1
*I *1935:A I *D MUX2_X1
*I *2254:Q O *D DFFR_X1
*CAP
1 *1502:A 0
2 *1495:A 6.87345e-05
3 *1935:A 0.000162574
4 *2254:Q 0
5 *1238:23 0.000108632
6 *1238:6 0.000202471
7 *1503:B2 *1495:A 0
8 *1935:B *1935:A 3.01642e-06
9 *1936:B *1935:A 0
10 *2254:RN *1935:A 8.58686e-06
11 *99:147 *1935:A 2.39679e-06
12 *413:10 *1495:A 1.80259e-05
13 *503:8 *1935:A 1.25431e-05
14 *503:8 *1238:23 1.55581e-05
15 *511:108 *1935:A 0
*RES
1 *2254:Q *1238:6 10 
2 *1238:6 *1935:A 26.7143 
3 *1238:6 *1238:23 9.89286 
4 *1238:23 *1495:A 12.1786 
5 *1238:23 *1502:A 5 
*END

*D_NET *1239 0.00114537
*CONN
*I *2031:A I *D MUX2_X1
*I *1491:A I *D XOR2_X1
*I *1490:A1 I *D AND2_X1
*I *2255:Q O *D DFFR_X1
*CAP
1 *2031:A 9.34751e-05
2 *1491:A 0
3 *1490:A1 4.06714e-05
4 *2255:Q 0.00024914
5 *1239:14 8.18397e-05
6 *1239:10 0.000383784
7 *1489:A *1490:A1 0
8 *1489:A *1239:10 2.66914e-05
9 *1491:B *1490:A1 5.62244e-05
10 *2034:A1 *1239:10 1.16067e-05
11 *2035:B1 *1239:10 5.10087e-06
12 *2035:B2 *1239:10 1.47939e-05
13 *2199:A *2031:A 0
14 *99:149 *1490:A1 0
15 *99:149 *2031:A 0.00012099
16 *99:149 *1239:14 3.35796e-05
17 *99:158 *2031:A 8.26038e-06
18 *200:8 *1239:10 1.20695e-05
19 *410:12 *1490:A1 7.14654e-06
*RES
1 *2255:Q *1239:10 45.1072 
2 *1239:10 *1239:14 4.85714 
3 *1239:14 *1490:A1 20.75 
4 *1239:14 *1491:A 5 
5 *1239:10 *2031:A 17.25 
*END

*D_NET *1240 0.0019945
*CONN
*I *1486:A I *D XNOR2_X1
*I *1507:A I *D INV_X1
*I *2138:A I *D MUX2_X1
*I *2256:Q O *D DFFR_X1
*CAP
1 *1486:A 0
2 *1507:A 3.54692e-05
3 *2138:A 1.69112e-05
4 *2256:Q 0.000220176
5 *1240:27 0.000354836
6 *1240:12 0.000556454
7 *1240:27 *1488:A 0
8 *1240:27 *2202:B2 0
9 *1486:B *1507:A 1.88906e-05
10 *1486:B *1240:27 1.61489e-05
11 *1493:B1 *1240:27 0
12 *1929:A1 *1240:12 4.37715e-05
13 *2031:B *1240:12 9.33006e-06
14 *2031:B *1240:27 4.36589e-06
15 *2032:B *1240:12 0
16 *2135:A1 *1240:12 4.24402e-05
17 *2137:A *1240:12 6.2553e-05
18 *2137:A *1240:27 1.46651e-05
19 *2138:B *2138:A 2.58428e-06
20 *2138:B *1240:27 4.32298e-05
21 *2138:S *1240:12 4.06418e-05
22 *2142:A1 *1240:12 4.26902e-05
23 *2142:A3 *1240:12 1.90574e-06
24 *99:164 *1240:12 3.02351e-05
25 *202:19 *1240:12 1.97274e-05
26 *271:8 *1240:12 0.00026177
27 *272:12 *1240:12 0.000146397
28 *408:10 *1240:27 9.31049e-06
*RES
1 *2256:Q *1240:12 47.7143 
2 *1240:12 *2138:A 11.75 
3 *1240:12 *1240:27 38.5714 
4 *1240:27 *1507:A 9.25 
5 *1240:27 *1486:A 5 
*END

*D_NET *1241 0.00147176
*CONN
*I *1857:A I *D MUX2_X1
*I *1568:B2 I *D AOI21_X1
*I *1572:A1 I *D OAI33_X1
*I *1567:A1 I *D NOR2_X1
*I *2242:Q O *D DFFR_X1
*CAP
1 *1857:A 0.000218024
2 *1568:B2 4.71722e-05
3 *1572:A1 6.27012e-06
4 *1567:A1 5.25432e-05
5 *2242:Q 0.000373244
6 *1241:27 7.05947e-05
7 *1241:10 0.000224916
8 *1568:B2 *1572:A2 2.54822e-05
9 *1572:A1 *1572:A2 7.72537e-06
10 *1566:A *1568:B2 6.92898e-05
11 *1566:A *1241:27 4.32298e-05
12 *1568:B1 *1568:B2 1.21774e-06
13 *1570:C2 *1567:A1 3.98132e-05
14 *1572:A3 *1568:B2 7.16188e-07
15 *1572:B1 *1567:A1 3.28137e-06
16 *1572:B1 *1572:A1 8.43215e-07
17 *1572:B2 *1567:A1 3.08216e-05
18 *1572:B3 *1567:A1 7.19036e-06
19 *1572:B3 *1568:B2 3.23723e-07
20 *1572:B3 *1241:10 4.12796e-06
21 *1572:B3 *1241:27 5.64879e-06
22 *1573:A1 *1567:A1 2.55331e-06
23 *1573:A2 *1241:27 3.01743e-06
24 *1573:B2 *1241:10 7.75536e-05
25 *1573:B2 *1241:27 4.93557e-05
26 *1775:A2 *1857:A 0
27 *1857:B *1857:A 2.16072e-07
28 *1858:A2 *1857:A 0
29 *1861:A1 *1857:A 0
30 *1871:B1 *1857:A 0
31 *1871:B1 *1241:10 0
32 *2128:A *1241:10 0
33 *2242:RN *1857:A 0
34 *2242:RN *1241:10 0
35 *492:8 *1567:A1 0
36 *1231:31 *1857:A 1.10223e-05
37 *1231:31 *1241:10 5.70553e-05
38 *1234:20 *1241:10 3.85068e-05
*RES
1 *2242:Q *1241:10 29.6072 
2 *1241:10 *1567:A1 17.4286 
3 *1241:10 *1241:27 8.64286 
4 *1241:27 *1572:A1 5.75 
5 *1241:27 *1568:B2 21.6429 
6 *2242:Q *1857:A 30.7857 
*END

*D_NET *1242 0.00122458
*CONN
*I *1852:A I *D MUX2_X1
*I *1564:A1 I *D NAND2_X1
*I *1574:A1 I *D OR3_X1
*I *1563:B2 I *D OAI21_X1
*I *2243:Q O *D DFFR_X1
*CAP
1 *1852:A 0
2 *1564:A1 0
3 *1574:A1 4.28567e-06
4 *1563:B2 3.0529e-05
5 *2243:Q 0.000133437
6 *1242:26 0.000104708
7 *1242:14 0.00022369
8 *1242:8 0.000287234
9 *1574:A1 *1574:A2 2.39679e-06
10 *1563:A *1563:B2 4.31956e-05
11 *1563:A *1242:26 4.26218e-05
12 *1563:B1 *1563:B2 6.32965e-06
13 *1563:B1 *1574:A1 6.38328e-07
14 *1564:A2 *1242:14 8.43215e-07
15 *1564:A2 *1242:26 6.17299e-05
16 *1565:A1 *1563:B2 1.31814e-05
17 *1565:A1 *1242:26 9.05228e-06
18 *1565:A2 *1242:26 1.71148e-05
19 *1574:A3 *1242:26 7.19036e-06
20 *1575:B1 *1242:14 3.24359e-06
21 *1849:A *1242:14 2.23415e-06
22 *2002:A *1242:14 0
23 *2002:B1 *1242:14 0
24 *2243:RN *1242:8 0
25 *492:8 *1242:8 0.000143732
26 *492:8 *1242:14 8.50439e-05
27 *494:12 *1563:B2 0
28 *511:130 *1563:B2 2.14856e-06
*RES
1 *2243:Q *1242:8 21.7143 
2 *1242:8 *1242:14 17.6071 
3 *1242:14 *1242:26 24.8214 
4 *1242:26 *1563:B2 15.0714 
5 *1242:26 *1574:A1 10.75 
6 *1242:14 *1564:A1 5 
7 *1242:8 *1852:A 5 
*END

*D_NET *1243 0.00117142
*CONN
*I *1576:A1 I *D NOR3_X1
*I *1558:A1 I *D NAND2_X1
*I *1559:B2 I *D OAI21_X1
*I *1995:A I *D MUX2_X1
*I *2244:Q O *D DFFR_X1
*CAP
1 *1576:A1 5.70212e-05
2 *1558:A1 0
3 *1559:B2 3.83951e-05
4 *1995:A 0.000178892
5 *2244:Q 0.000168361
6 *1243:14 0.000255134
7 *1243:12 6.27055e-05
8 *1243:10 0.000250241
9 *1576:A1 *1576:A2 1.30565e-05
10 *1243:10 *2000:A 0
11 *1558:A2 *1559:B2 2.48889e-05
12 *1558:A2 *1576:A1 0
13 *1559:A *1243:10 0
14 *1559:A *1243:12 0
15 *1560:A1 *1559:B2 3.90865e-05
16 *1560:A1 *1995:A 2.84765e-06
17 *1560:A1 *1243:14 8.96853e-06
18 *61:48 *1995:A 0
19 *61:48 *1243:10 0
20 *61:48 *1243:12 0
21 *61:48 *1243:14 0
22 *61:147 *1243:10 0
23 *95:267 *1995:A 0
24 *524:254 *1243:10 1.24656e-05
25 *766:103 *1559:B2 0
26 *766:103 *1995:A 2.4461e-05
27 *766:146 *1995:A 3.21451e-05
28 *766:163 *1995:A 2.75346e-06
*RES
1 *2244:Q *1243:10 28 
2 *1243:10 *1243:12 2.28572 
3 *1243:12 *1243:14 3.64286 
4 *1243:14 *1995:A 29.0714 
5 *1243:14 *1559:B2 15.75 
6 *1243:12 *1558:A1 10 
7 *1243:10 *1576:A1 15.75 
*END

*D_NET *1244 0.00152153
*CONN
*I *1561:A I *D AOI21_X1
*I *1990:A I *D MUX2_X1
*I *1555:A I *D INV_X1
*I *2245:Q O *D DFFR_X1
*CAP
1 *1561:A 0
2 *1990:A 0.00026122
3 *1555:A 0
4 *2245:Q 0.000125329
5 *1244:16 0.000397966
6 *1244:6 0.000262075
7 *1244:6 *1561:B1 4.79358e-06
8 *1244:6 *1419:23 3.02925e-05
9 *1244:16 *1552:A 6.73568e-05
10 *1244:16 *1561:B1 2.39679e-06
11 *1244:16 *1576:A2 7.10056e-06
12 *1244:16 *1419:23 1.54649e-06
13 *1551:A2 *1244:16 0
14 *1554:A2 *1244:16 6.78899e-05
15 *1556:A *1990:A 0
16 *1556:A *1244:16 0
17 *1556:B1 *1244:16 1.41532e-05
18 *1561:B2 *1244:16 3.41005e-06
19 *1577:B1 *1244:16 1.51249e-05
20 *1577:B2 *1244:16 6.32202e-06
21 *1985:B *1990:A 0
22 *1990:B *1990:A 2.16072e-07
23 *1990:S *1990:A 2.39679e-06
24 *2095:B2 *1990:A 0
25 *2125:A *1244:6 0
26 *2245:RN *1244:6 0
27 *61:50 *1990:A 5.78021e-05
28 *152:10 *1990:A 0
29 *472:14 *1244:16 8.75903e-06
30 *530:155 *1990:A 0
31 *1130:18 *1244:16 0.000185383
*RES
1 *2245:Q *1244:6 18.75 
2 *1244:6 *1244:16 32.3929 
3 *1244:16 *1555:A 5 
4 *1244:16 *1990:A 44.1429 
5 *1244:6 *1561:A 5 
*END

*D_NET *1245 0.000431297
*CONN
*I *1985:A I *D MUX2_X1
*I *1549:A1 I *D OR2_X1
*I *1548:A1 I *D NAND2_X1
*I *2246:Q O *D DFFR_X1
*CAP
1 *1985:A 2.69528e-05
2 *1549:A1 2.14476e-05
3 *1548:A1 0
4 *2246:Q 2.14476e-05
5 *1245:8 0.000153451
6 *1245:6 0.000180404
7 *1985:A *1418:90 0
8 *1245:8 *1418:90 2.26926e-05
9 *1985:B *1985:A 2.14856e-06
10 *1985:S *1985:A 2.75346e-06
11 *61:65 *1245:8 0
12 *152:10 *1985:A 0
13 *152:10 *1245:8 0
*RES
1 *2246:Q *1245:6 7.28572 
2 *1245:6 *1245:8 13.75 
3 *1245:8 *1548:A1 5 
4 *1245:8 *1549:A1 7.28572 
5 *1245:6 *1985:A 8.17857 
*END

*D_NET *1246 0.00107753
*CONN
*I *1579:A1 I *D NOR3_X1
*I *1545:A1 I *D AOI22_X1
*I *1544:B2 I *D OAI21_X1
*I *1980:A I *D MUX2_X1
*I *2247:Q O *D DFFR_X1
*CAP
1 *1579:A1 2.27389e-05
2 *1545:A1 9.52052e-05
3 *1544:B2 1.72168e-05
4 *1980:A 9.04363e-05
5 *2247:Q 7.60095e-05
6 *1246:34 0.000136394
7 *1246:23 9.63437e-05
8 *1246:12 0.000227123
9 *1545:A1 *1545:A2 2.39679e-06
10 *1579:A1 *1579:A2 7.72792e-06
11 *1980:A *1418:10 0
12 *1980:A *1418:81 0
13 *1246:12 *1579:A2 2.09871e-05
14 *1246:12 *1418:81 1.29218e-05
15 *1246:23 *1579:A2 6.69969e-05
16 *1246:34 *1579:A2 4.42782e-06
17 *1545:B1 *1545:A1 3.09411e-06
18 *1546:A2 *1545:A1 0
19 *1546:A2 *1579:A1 4.52198e-05
20 *1546:A2 *1246:34 5.54348e-05
21 *1580:A *1579:A1 0
22 *1580:B1 *1579:A1 0
23 *1980:B *1980:A 7.16188e-07
24 *1980:S *1980:A 2.75346e-06
25 *462:10 *1246:12 0
26 *1102:43 *1246:12 3.13512e-06
27 *1102:43 *1246:23 1.84505e-06
28 *1131:14 *1544:B2 6.65423e-06
29 *1131:14 *1545:A1 3.24108e-07
30 *1131:14 *1579:A1 3.8736e-05
31 *1131:14 *1246:34 4.26902e-05
*RES
1 *2247:Q *1246:12 19.1429 
2 *1246:12 *1980:A 18.75 
3 *1246:12 *1246:23 9.07143 
4 *1246:23 *1544:B2 11.75 
5 *1246:23 *1246:34 3.64286 
6 *1246:34 *1545:A1 19.25 
7 *1246:34 *1579:A1 14.0357 
*END

*D_NET *1247 0.000856113
*CONN
*I *1542:B2 I *D OAI21_X1
*I *1545:B2 I *D AOI22_X1
*I *1581:A1 I *D NOR3_X1
*I *1972:A I *D MUX2_X1
*I *2248:Q O *D DFFR_X1
*CAP
1 *1542:B2 2.59957e-05
2 *1545:B2 7.8465e-05
3 *1581:A1 0
4 *1972:A 5.38098e-05
5 *2248:Q 5.06566e-05
6 *1247:25 9.06439e-05
7 *1247:21 8.9563e-05
8 *1247:8 0.000155855
9 *1972:A *1581:A2 1.32167e-05
10 *1247:21 *1581:A2 2.9536e-05
11 *1545:B1 *1542:B2 1.40196e-06
12 *1545:B1 *1545:B2 0.000107403
13 *1545:B1 *1247:25 7.72792e-06
14 *1581:A3 *1542:B2 6.32461e-06
15 *1581:A3 *1247:8 0
16 *1581:A3 *1247:21 1.045e-05
17 *1581:A3 *1247:25 2.52965e-06
18 *1583:A3 *1247:25 7.72792e-06
19 *1972:S *1972:A 1.25189e-05
20 *2075:A1 *1972:A 1.52083e-06
21 *95:71 *1542:B2 9.05224e-06
22 *95:71 *1972:A 9.05224e-06
23 *95:71 *1247:21 2.64562e-05
24 *460:12 *1542:B2 1.46625e-05
25 *524:102 *1542:B2 1.8031e-05
26 *766:18 *1972:A 2.4881e-05
27 *766:18 *1247:8 8.63111e-06
*RES
1 *2248:Q *1247:8 15.25 
2 *1247:8 *1972:A 16.8929 
3 *1247:8 *1247:21 8.39286 
4 *1247:21 *1247:25 6.75 
5 *1247:25 *1581:A1 5 
6 *1247:25 *1545:B2 15.25 
7 *1247:21 *1542:B2 14.7143 
*END

*D_NET *1248 0.00176719
*CONN
*I *1527:A I *D INV_X1
*I *1530:A I *D XNOR2_X1
*I *1965:A I *D MUX2_X1
*I *2249:Q O *D DFFR_X1
*CAP
1 *1527:A 0
2 *1530:A 6.7947e-05
3 *1965:A 3.43546e-05
4 *2249:Q 0
5 *1248:27 0.0002776
6 *1248:10 0.00042549
7 *1248:4 0.000600788
8 *1248:10 *1969:A 0.000208412
9 *1248:27 *1418:22 0.0001114
10 *1528:A *1530:A 0
11 *1528:A *1248:27 0
12 *1528:B *1248:27 0
13 *1529:A1 *1530:A 7.37443e-06
14 *1529:A1 *1248:27 3.65322e-06
15 *1530:B *1530:A 7.72792e-06
16 *1963:S *1965:A 3.09143e-06
17 *1965:S *1965:A 7.72537e-06
18 *2015:A *1248:10 0
19 *2070:A2 *1248:10 0
20 *2071:A1 *1248:10 0
21 *2073:B1 *1248:10 0
22 *2074:A *1248:10 0
23 *2249:RN *1248:10 0
24 *530:64 *1530:A 0
25 *530:64 *1248:27 3.23723e-07
26 *766:28 *1965:A 1.13064e-05
*RES
1 *2249:Q *1248:4 5 
2 *1248:4 *1248:10 46.3572 
3 *1248:10 *1965:A 13.75 
4 *1248:4 *1248:27 37.2857 
5 *1248:27 *1530:A 12.1786 
6 *1248:27 *1527:A 5 
*END

*D_NET *1249 0.000422629
*CONN
*I *1522:A I *D XNOR2_X1
*I *1524:A I *D INV_X1
*I *1960:A I *D MUX2_X1
*I *2250:Q O *D DFFR_X1
*CAP
1 *1522:A 6.08028e-05
2 *1524:A 0
3 *1960:A 5.48453e-05
4 *2250:Q 0.000145473
5 *1249:20 0.00015143
6 *1522:A *1418:43 0
7 *1249:20 *1418:43 0
8 *1525:A1 *1522:A 6.88146e-06
9 *2120:A *1960:A 0
10 *2250:RN *1960:A 3.1962e-06
11 *61:92 *1522:A 0
12 *61:92 *1960:A 0
13 *61:92 *1249:20 0
14 *127:8 *1960:A 0
15 *440:12 *1522:A 0
*RES
1 *2250:Q *1960:A 15.3571 
2 *2250:Q *1249:20 13.25 
3 *1249:20 *1524:A 5 
4 *1249:20 *1522:A 11.25 
*END

*D_NET *1250 0.00166961
*CONN
*P data_in[0] I
*I *1888:A1 I *D AOI22_X1
*CAP
1 data_in[0] 0.000299759
2 *1888:A1 0.000293429
3 *1250:11 0.000593188
4 *1888:A1 *2229:CK 7.76244e-05
5 *1888:A1 *1254:11 0
6 *1250:11 *1254:11 0.000157225
7 *1888:B1 *1888:A1 8.43215e-07
8 *1901:B1 *1888:A1 1.28122e-06
9 *2229:RN *1888:A1 0
10 *2230:RN *1888:A1 2.50666e-06
11 *97:17 *1888:A1 0.000243757
*RES
1 data_in[0] *1250:11 48.0714 
2 *1250:11 *1888:A1 42.9286 
*END

*D_NET *1251 0.00145379
*CONN
*P data_in[1] I
*I *1891:A1 I *D AOI22_X1
*CAP
1 data_in[1] 0.000112512
2 *1891:A1 8.26192e-05
3 *1251:15 0.000452308
4 *1251:11 0.0004822
5 *1891:A1 *1891:B2 2.52965e-06
6 *1891:A1 *1899:A1 5.11574e-06
7 *1251:11 *1252:11 6.72028e-05
8 *1251:11 *1253:11 4.89257e-05
9 *1251:15 *1897:A1 9.73587e-05
10 *1251:15 *1897:B2 2.08416e-06
11 *1251:15 *1899:A1 2.16072e-07
12 *1891:A2 *1891:A1 1.87637e-06
13 *1892:B1 *1891:A1 1.76665e-06
14 *1897:B1 *1251:15 1.87369e-06
15 *1898:B1 *1251:15 1.18589e-06
16 *98:48 *1891:A1 9.17646e-05
17 *98:48 *1251:15 2.25089e-06
*RES
1 data_in[1] *1251:11 27.2143 
2 *1251:11 *1251:15 43.6786 
3 *1251:15 *1891:A1 15.6786 
*END

*D_NET *1252 0.00140293
*CONN
*P data_in[2] I
*I *1894:A1 I *D AOI22_X1
*CAP
1 data_in[2] 0.00026325
2 *1894:A1 0.000388041
3 *1252:11 0.00065129
4 *1252:11 *1253:11 4.34907e-06
5 *1252:11 *1254:11 2.62684e-05
6 *1894:B1 *1894:A1 2.52965e-06
7 *1251:11 *1252:11 6.72028e-05
*RES
1 data_in[2] *1252:11 42.7857 
2 *1252:11 *1894:A1 45.25 
*END

*D_NET *1253 0.00122919
*CONN
*P data_in[3] I
*I *1897:A1 I *D AOI22_X1
*CAP
1 data_in[3] 0.00015214
2 *1897:A1 0.000380719
3 *1253:11 0.00053286
4 *1894:B1 *1897:A1 0
5 *1897:A2 *1897:A1 2.39679e-06
6 *1897:B1 *1897:A1 1.87637e-06
7 *1898:B1 *1897:A1 7.72537e-06
8 *98:48 *1897:A1 8.43215e-07
9 *1251:11 *1253:11 4.89257e-05
10 *1251:15 *1897:A1 9.73587e-05
11 *1252:11 *1253:11 4.34907e-06
*RES
1 data_in[3] *1253:11 28.7857 
2 *1253:11 *1897:A1 49.75 
*END

*D_NET *1254 0.000972256
*CONN
*P data_in[4] I
*I *1900:A1 I *D AOI22_X1
*CAP
1 data_in[4] 0.000389025
2 *1900:A1 0
3 *1254:11 0.000389025
4 *1888:A1 *1254:11 0
5 *1900:A2 *1254:11 1.21774e-06
6 *1900:B1 *1254:11 7.72792e-06
7 *1901:B1 *1254:11 1.76665e-06
8 *1250:11 *1254:11 0.000157225
9 *1252:11 *1254:11 2.62684e-05
*RES
1 data_in[4] *1254:11 48.8572 
2 *1254:11 *1900:A1 5 
*END

*D_NET *1255 0.00144501
*CONN
*P data_in[5] I
*I *1903:A1 I *D AOI22_X1
*CAP
1 data_in[5] 3.07704e-05
2 *1903:A1 0
3 *1255:13 0.000502292
4 *1255:11 0.000533062
5 *1255:11 *1257:9 1.91359e-06
6 *1255:13 *1256:5 0.000108575
7 *1255:13 *1257:9 5.49555e-05
8 *1885:B1 *1255:13 1.68643e-06
9 *1903:A2 *1255:13 0.000203517
10 *1903:B1 *1255:13 3.65322e-06
11 *1906:A2 *1255:13 6.48216e-07
12 *1907:B1 *1255:13 0
13 *763:31 *1255:13 3.93465e-06
*RES
1 data_in[5] *1255:11 4.125 
2 *1255:11 *1255:13 65.5179 
3 *1255:13 *1903:A1 5 
*END

*D_NET *1256 0.000871204
*CONN
*P data_in[6] I
*I *1906:A1 I *D AOI22_X1
*CAP
1 data_in[6] 0.000378851
2 *1906:A1 0
3 *1256:5 0.000378851
4 *1256:5 *1266:8 0
5 *1906:A2 *1256:5 2.39679e-06
6 *1906:B1 *1256:5 2.52965e-06
7 *1255:13 *1256:5 0.000108575
*RES
1 data_in[6] *1256:5 45.3929 
2 *1256:5 *1906:A1 5 
*END

*D_NET *1257 0.00090399
*CONN
*P data_in[7] I
*I *1885:A1 I *D AOI22_X1
*CAP
1 data_in[7] 0.000420394
2 *1885:A1 0
3 *1257:9 0.000420394
4 *1885:A2 *1257:9 2.39679e-06
5 *1885:B1 *1257:9 3.09411e-06
6 *763:31 *1257:9 8.43215e-07
7 *1255:11 *1257:9 1.91359e-06
8 *1255:13 *1257:9 5.49555e-05
*RES
1 data_in[7] *1257:9 47.25 
2 *1257:9 *1885:A1 5 
*END

*D_NET *1258 0.0100587
*CONN
*P reset I
*I *2753:A I *D BUF_X4
*I *2149:A I *D INV_X1
*I *2152:A I *D INV_X1
*I *2151:A I *D INV_X1
*I *2150:A I *D INV_X1
*I *2158:A I *D INV_X1
*I *2159:A I *D INV_X1
*I *2165:A I *D INV_X1
*I *2166:A I *D INV_X1
*I *2168:A I *D INV_X1
*I *2157:A I *D INV_X1
*I *2156:A I *D INV_X1
*I *2155:A I *D INV_X1
*I *2154:A I *D INV_X1
*I *2153:A I *D INV_X1
*CAP
1 reset 0.000373926
2 *2753:A 0
3 *2149:A 0
4 *2152:A 7.4668e-06
5 *2151:A 0
6 *2150:A 0
7 *2158:A 0.000187652
8 *2159:A 0
9 *2165:A 2.14476e-05
10 *2166:A 1.50803e-05
11 *2168:A 0.000160771
12 *2157:A 0.000126779
13 *2156:A 1.62519e-05
14 *2155:A 0.000196819
15 *2154:A 0.000107875
16 *2153:A 8.10563e-06
17 *1258:180 0.000396594
18 *1258:121 0.000354087
19 *1258:119 0.00021084
20 *1258:117 0.000346615
21 *1258:113 0.000392563
22 *1258:94 0.000322057
23 *1258:92 0.000474776
24 *1258:86 0.000229913
25 *1258:59 0.000423641
26 *1258:57 0.000448585
27 *1258:42 0.000491099
28 *1258:27 0.000346402
29 *1258:13 0.000382262
30 *1258:9 0.00107495
31 *1258:7 0.00130925
32 *2153:A *1421:31 0
33 *2154:A *1421:31 4.62635e-06
34 *2155:A *1888:B2 2.67038e-05
35 *2155:A *1890:A1 6.80378e-06
36 *2155:A *2226:CK 1.15252e-05
37 *2155:A *1260:8 2.02959e-06
38 *2155:A *1420:87 3.02351e-05
39 *2157:A tx_done 1.15003e-06
40 *2157:A *2240:CK 4.47286e-06
41 *2158:A *2232:CK 3.38451e-05
42 *2158:A *1420:69 8.30282e-06
43 *2168:A tx_done 0
44 *2168:A *1600:A 4.29713e-06
45 *2168:A *2238:CK 9.4435e-05
46 *1258:27 *2235:CK 0
47 *1258:27 *1262:8 5.91963e-06
48 *1258:27 *1421:31 0
49 *1258:27 *1421:35 0
50 *1258:42 *1421:31 4.11375e-06
51 *1258:42 *1421:35 0
52 *1258:57 *1894:B2 0
53 *1258:57 *1899:A1 4.37715e-05
54 *1258:57 *1262:8 0
55 *1258:57 *1421:31 4.41601e-05
56 *1258:86 *2229:CK 3.09682e-06
57 *1258:92 *2229:CK 2.75118e-05
58 *1258:92 *1420:102 0
59 *1258:94 *2225:CK 0
60 *1258:117 *1420:20 5.42579e-06
61 *1258:117 *1420:49 4.79658e-06
62 *1258:117 *1420:62 2.81092e-05
63 *1258:119 *2257:D 5.52692e-06
64 *1258:119 *1420:20 1.88444e-05
65 *1258:119 *1420:22 7.66449e-06
66 *1258:121 *2240:CK 1.59582e-06
67 *1258:121 *1420:22 1.24565e-05
68 *1258:180 *2225:CK 1.39834e-05
69 *1620:B *1258:9 0
70 *1624:A *1258:9 0
71 *1624:B *1258:9 0
72 *1628:A *1258:9 0.000326181
73 *1765:A *1258:9 0
74 *1765:B *1258:9 7.89265e-05
75 *1769:A *1258:13 0
76 *1769:A *1258:27 4.40371e-06
77 *1769:B *1258:9 0
78 *1880:A *1258:113 3.37198e-05
79 *1880:B *1258:113 0.000198626
80 *1881:B *1258:113 3.30475e-06
81 *1890:A2 *2155:A 2.61812e-06
82 *1894:A2 *1258:57 0
83 *1899:A2 *1258:57 5.62265e-05
84 *1901:A *1258:57 5.11191e-06
85 *1903:B1 *1258:180 5.67661e-05
86 *1904:A *1258:92 2.75346e-06
87 *1905:A2 *1258:180 0
88 *2131:B2 *1258:113 0
89 *2164:B2 *2157:A 0
90 *2225:D *1258:94 6.44217e-06
91 *2226:D *2155:A 0
92 *2226:RN *2155:A 7.09501e-06
93 *2227:RN *2154:A 3.34038e-05
94 *2228:D *1258:42 3.65659e-06
95 *2228:D *1258:57 0
96 *2228:RN *1258:27 1.27088e-05
97 *2231:D *1258:180 0
98 *2231:RN *2158:A 9.58404e-06
99 *2233:RN *1258:113 9.30167e-06
100 *2234:RN *1258:27 8.43215e-07
101 *2238:D *2168:A 1.46241e-05
102 *2238:RN *2168:A 1.70588e-05
103 *2239:SN *1258:117 0
104 *2240:D *2157:A 5.47944e-06
105 *2240:D *2168:A 3.49339e-06
106 *2240:RN *2157:A 4.09256e-06
107 *2257:RN *1258:119 9.58404e-06
108 *97:8 *2155:A 4.78746e-06
109 *97:17 *2152:A 0
110 *97:17 *2155:A 0
111 *97:17 *1258:59 0
112 *97:63 *1258:57 0
113 *97:74 *1258:57 0
114 *98:10 *1258:86 0
115 *98:10 *1258:92 0
116 *98:33 *2155:A 0
117 *98:33 *1258:57 0
118 *98:33 *1258:59 0
119 *98:33 *1258:86 0
120 *98:44 *1258:57 0
121 *98:74 *1258:57 0
122 *204:18 *2155:A 8.01584e-06
123 *204:24 *1258:92 3.83909e-06
124 *204:24 *1258:94 8.95027e-06
125 *204:28 *1258:180 0
126 *204:76 *1258:92 2.55787e-06
127 *524:159 *2168:A 4.79202e-06
128 *532:36 *1258:113 0
129 *763:12 *2156:A 4.2963e-06
130 *763:12 *1258:92 7.19036e-06
131 *763:12 *1258:94 0.000150408
132 *763:16 *1258:180 7.66366e-05
*RES
1 reset *1258:7 44.3929 
2 *1258:7 *1258:9 114.25 
3 *1258:9 *1258:13 20.8571 
4 *1258:13 *1258:27 35.6786 
5 *1258:27 *2153:A 5.75 
6 *1258:27 *1258:42 20.3214 
7 *1258:42 *2154:A 16.3571 
8 *1258:42 *1258:57 44.1786 
9 *1258:57 *1258:59 15.25 
10 *1258:59 *2155:A 38.2857 
11 *1258:59 *1258:86 12.0357 
12 *1258:86 *1258:92 22.7143 
13 *1258:92 *1258:94 14.75 
14 *1258:94 *2156:A 6.67857 
15 *1258:94 *1258:113 35.6786 
16 *1258:113 *1258:117 21.1786 
17 *1258:117 *1258:119 14.75 
18 *1258:119 *1258:121 7.25 
19 *1258:121 *2157:A 27.2143 
20 *1258:121 *2168:A 36.1429 
21 *1258:119 *2166:A 6.60714 
22 *1258:117 *2165:A 7.28572 
23 *1258:113 *2159:A 5 
24 *1258:92 *1258:180 35.6786 
25 *1258:180 *2158:A 26.1786 
26 *1258:180 *2150:A 5 
27 *1258:86 *2151:A 10 
28 *1258:57 *2152:A 5.75 
29 *1258:13 *2149:A 5 
30 *1258:9 *2753:A 10 
*END

*D_NET *1259 0.000352978
*CONN
*I *1887:A1 I *D NOR2_X1
*I *2131:A1 I *D AOI22_X1
*I *2225:Q O *D DFFR_X1
*CAP
1 *1887:A1 5.38819e-05
2 *2131:A1 0.000121998
3 *2225:Q 0
4 *1259:4 0.00017588
5 *1887:A2 *1887:A1 1.21774e-06
6 *1889:A *1887:A1 0
7 *2131:A2 *2131:A1 0
8 *2225:RN *2131:A1 0
9 *97:8 *1887:A1 0
10 *763:12 *2131:A1 0
*RES
1 *2225:Q *1259:4 5 
2 *1259:4 *2131:A1 17.3214 
3 *1259:4 *1887:A1 10.8929 
*END

*D_NET *1260 0.000784342
*CONN
*I *1890:A1 I *D NOR2_X1
*I *1888:B2 I *D AOI22_X1
*I *2226:Q O *D DFFR_X1
*CAP
1 *1890:A1 4.2889e-05
2 *1888:B2 0.000103733
3 *2226:Q 7.38599e-05
4 *1260:8 0.000220482
5 *1888:B2 *2226:CK 8.22158e-05
6 *1888:B2 *1420:87 2.12298e-05
7 *1892:A *1890:A1 4.93938e-05
8 *2155:A *1888:B2 2.67038e-05
9 *2155:A *1890:A1 6.80378e-06
10 *2155:A *1260:8 2.02959e-06
11 *2226:D *1888:B2 1.39294e-06
12 *2226:RN *1890:A1 9.66611e-07
13 *98:10 *1888:B2 1.72405e-05
14 *98:33 *1888:B2 0.000133283
15 *204:12 *1888:B2 0
16 *204:12 *1260:8 0
17 *204:16 *1890:A1 2.11815e-06
*RES
1 *2226:Q *1260:8 18.3929 
2 *1260:8 *1888:B2 26.5357 
3 *1260:8 *1890:A1 15.75 
*END

*D_NET *1261 0.00085
*CONN
*I *1893:A1 I *D NOR2_X1
*I *1891:B2 I *D AOI22_X1
*I *2227:Q O *D DFFR_X1
*CAP
1 *1893:A1 7.0714e-06
2 *1891:B2 6.8851e-05
3 *2227:Q 0.000114881
4 *1261:8 0.000190803
5 *1891:A1 *1891:B2 2.52965e-06
6 *1893:A2 *1891:B2 3.02372e-05
7 *1893:A2 *1893:A1 3.09411e-06
8 *1893:A2 *1261:8 3.84423e-05
9 *1895:A *1891:B2 1.72405e-05
10 *1895:A *1261:8 8.14262e-05
11 *1895:B2 *1893:A1 6.48216e-07
12 *2227:D *1261:8 9.44188e-05
13 *98:33 *1891:B2 2.0334e-05
14 *98:44 *1891:B2 2.51997e-05
15 *98:74 *1891:B2 4.82544e-05
16 *98:74 *1261:8 0.000106569
*RES
1 *2227:Q *1261:8 29.25 
2 *1261:8 *1891:B2 20.5 
3 *1261:8 *1893:A1 10.75 
*END

*D_NET *1262 0.000984241
*CONN
*I *1896:A1 I *D NOR2_X1
*I *1894:B2 I *D AOI22_X1
*I *2228:Q O *D DFFR_X1
*CAP
1 *1896:A1 0
2 *1894:B2 6.16914e-05
3 *2228:Q 0.00012827
4 *1262:8 0.000189961
5 *1262:8 *1421:35 0.000235783
6 *1894:A2 *1894:B2 3.11414e-05
7 *1894:B1 *1894:B2 1.72405e-05
8 *1898:B1 *1894:B2 0.000210333
9 *1898:B1 *1262:8 6.84295e-05
10 *2228:D *1262:8 3.54727e-05
11 *1258:27 *1262:8 5.91963e-06
12 *1258:57 *1894:B2 0
13 *1258:57 *1262:8 0
*RES
1 *2228:Q *1262:8 30.6072 
2 *1262:8 *1894:B2 21.1071 
3 *1262:8 *1896:A1 10 
*END

*D_NET *1263 0.000246379
*CONN
*I *1897:B2 I *D AOI22_X1
*I *1899:A1 I *D NOR2_X1
*I *2229:Q O *D DFFR_X1
*CAP
1 *1897:B2 3.54457e-05
2 *1899:A1 5.21485e-05
3 *2229:Q 0
4 *1263:4 8.75942e-05
5 *1891:A1 *1899:A1 5.11574e-06
6 *2229:RN *1897:B2 0
7 *2229:RN *1899:A1 0
8 *97:63 *1897:B2 2.00032e-05
9 *97:63 *1899:A1 0
10 *1251:15 *1897:B2 2.08416e-06
11 *1251:15 *1899:A1 2.16072e-07
12 *1258:57 *1899:A1 4.37715e-05
*RES
1 *2229:Q *1263:4 5 
2 *1263:4 *1899:A1 21.0357 
3 *1263:4 *1897:B2 19.2143 
*END

*D_NET *1264 0.000677271
*CONN
*I *1900:B2 I *D AOI22_X1
*I *1902:A1 I *D NOR2_X1
*I *2230:Q O *D DFFR_X1
*CAP
1 *1900:B2 0.000146433
2 *1902:A1 4.31438e-05
3 *2230:Q 0.000102827
4 *1264:8 0.000292403
5 *1900:B2 *2229:CK 0
6 *1900:B2 *2230:CK 2.16072e-07
7 *1264:8 *2229:CK 0
8 *1900:B1 *1900:B2 7.72792e-06
9 *2229:D *1900:B2 0
10 *2230:D *1902:A1 8.14262e-05
11 *204:108 *1900:B2 0
12 *204:108 *1902:A1 3.09411e-06
*RES
1 *2230:Q *1264:8 20.4286 
2 *1264:8 *1902:A1 15.75 
3 *1264:8 *1900:B2 24.25 
*END

*D_NET *1265 0.000363888
*CONN
*I *1903:B2 I *D AOI22_X1
*I *1905:A1 I *D NOR2_X1
*I *2231:Q O *D DFFR_X1
*CAP
1 *1903:B2 5.38352e-05
2 *1905:A1 3.14148e-05
3 *2231:Q 7.54839e-06
4 *1265:8 9.27984e-05
5 *1903:B1 *1903:B2 7.72792e-06
6 *1905:A2 *1903:B2 4.12796e-06
7 *1905:A2 *1905:A1 1.28987e-05
8 *1905:A2 *1265:8 1.07633e-05
9 *1907:A *1903:B2 0
10 *1907:A *1905:A1 2.41544e-05
11 *2231:D *1903:B2 2.94455e-05
12 *2231:D *1265:8 3.02351e-05
13 *204:28 *1903:B2 4.62385e-05
14 *204:43 *1905:A1 1.26998e-05
*RES
1 *2231:Q *1265:8 11.6071 
2 *1265:8 *1905:A1 14.25 
3 *1265:8 *1903:B2 17.7857 
*END

*D_NET *1266 0.000135047
*CONN
*I *1906:B2 I *D AOI22_X1
*I *1884:A1 I *D NOR2_X1
*I *2232:Q O *D DFFR_X1
*CAP
1 *1906:B2 1.68771e-05
2 *1884:A1 0
3 *2232:Q 4.5444e-05
4 *1266:8 6.2321e-05
5 *1884:A2 *1266:8 8.43215e-07
6 *1907:B1 *1906:B2 9.56198e-06
7 *1256:5 *1266:8 0
*RES
1 *2232:Q *1266:8 9.89286 
2 *1266:8 *1884:A1 5 
3 *1266:8 *1906:B2 7.28572 
*END

*D_NET *1267 0.00107634
*CONN
*P start I
*I *1613:A1 I *D NAND2_X1
*I *2257:D I *D DFFR_X1
*CAP
1 start 0.000358
2 *1613:A1 0.000145979
3 *2257:D 8.32403e-06
4 *1267:5 0.000512303
5 *2257:D *1420:20 5.52692e-06
6 *1613:A2 *1613:A1 2.74429e-05
7 *1840:A3 *1613:A1 1.32323e-05
8 *1258:119 *2257:D 5.52692e-06
*RES
1 start *1267:5 40.375 
2 *1267:5 *2257:D 11.25 
3 *1267:5 *1613:A1 25.75 
*END

*D_NET *1269 0.00230877
*CONN
*I *2169:A I *D XOR2_X1
*I *1840:A2 I *D NOR3_X1
*I *1926:A I *D INV_X1
*I *1595:A I *D XOR2_X1
*I *1610:A2 I *D NOR2_X2
*I *1599:A I *D XOR2_X1
*I *2237:Q O *D DFFR_X1
*CAP
1 *2169:A 5.50721e-05
2 *1840:A2 0
3 *1926:A 0.000183596
4 *1595:A 0
5 *1610:A2 0.000182838
6 *1599:A 7.11433e-05
7 *2237:Q 0.000142742
8 *1269:67 0.000141375
9 *1269:24 0.000259366
10 *1269:20 0.000158009
11 *1269:12 0.000392659
12 *1610:A2 *1610:A1 1.30565e-05
13 *1926:A *2237:CK 0
14 *2169:A *1840:A1 9.4118e-06
15 *1269:12 *1606:A 5.84698e-05
16 *1269:20 *2237:CK 0
17 *1269:67 *1610:A1 3.65322e-06
18 *1269:67 *1840:A1 3.98851e-05
19 *1595:B *1269:20 0.000196799
20 *1596:B *1926:A 0
21 *1596:B *1269:12 6.86795e-05
22 *1596:B *1269:20 7.97485e-05
23 *1596:B *1269:24 3.66854e-05
24 *1598:B *1269:20 1.42931e-06
25 *1598:B *1269:24 4.17886e-06
26 *1599:B *1599:A 8.22137e-05
27 *1599:B *1269:24 0
28 *1600:B *1269:24 0
29 *1602:B *1599:A 3.76667e-05
30 *1603:B2 *1269:12 1.0024e-05
31 *1604:A2 *1269:12 0
32 *1927:A *1926:A 0
33 *2147:A *1926:A 1.91498e-06
34 *2237:D *1926:A 1.97139e-05
35 *2237:RN *1926:A 0
36 *520:49 *1269:67 0
37 *529:6 *1269:67 1.58933e-05
38 *529:16 *2169:A 8.30282e-06
39 *530:6 *1599:A 1.04248e-05
40 *530:6 *1610:A2 2.382e-05
41 *530:6 *2169:A 0
42 *530:6 *1269:67 0
*RES
1 *2237:Q *1269:12 31.8214 
2 *1269:12 *1269:20 18.1071 
3 *1269:20 *1269:24 15.4286 
4 *1269:24 *1599:A 25.25 
5 *1269:24 *1610:A2 15.75 
6 *1269:20 *1595:A 10 
7 *1269:12 *1926:A 23.75 
8 *1610:A2 *1269:67 15.6786 
9 *1269:67 *1840:A2 5 
10 *1269:67 *2169:A 11.4286 
*END

*D_NET *1270 0.00151882
*CONN
*I *1842:A I *D INV_X1
*I *1596:A I *D XOR2_X1
*I *1610:A1 I *D NOR2_X2
*I *1840:A1 I *D NOR3_X1
*I *1600:A I *D XOR2_X1
*I *2170:A I *D XOR2_X1
*I *2238:Q O *D DFFR_X1
*CAP
1 *1842:A 0
2 *1596:A 8.31743e-05
3 *1610:A1 1.33995e-05
4 *1840:A1 0.000106224
5 *1600:A 8.14793e-05
6 *2170:A 0.000151267
7 *2238:Q 0
8 *1270:68 0.00013571
9 *1270:53 9.7395e-05
10 *1270:30 0.000149555
11 *1270:8 0.000276839
12 *1270:6 5.59635e-05
13 *1600:B *1600:A 2.86077e-05
14 *1610:A2 *1610:A1 1.30565e-05
15 *1840:A3 *1840:A1 1.72426e-05
16 *2168:A *1600:A 4.29713e-06
17 *2169:A *1840:A1 9.4118e-06
18 *2238:D *2170:A 1.16067e-05
19 *2238:D *1270:8 2.29122e-05
20 *2238:D *1270:30 6.03486e-06
21 *2238:D *1270:53 1.39319e-05
22 *2238:D *1270:68 3.69673e-05
23 *2238:RN *1600:A 2.00179e-05
24 *2238:RN *2170:A 3.09411e-06
25 *95:10 *1270:68 3.48838e-06
26 *95:14 *1596:A 4.25617e-05
27 *95:14 *1270:68 4.12459e-06
28 *95:131 *1270:68 5.10087e-06
29 *516:37 *1596:A 0
30 *520:49 *1600:A 3.8284e-05
31 *520:49 *1840:A1 0
32 *520:49 *2170:A 0
33 *524:159 *1600:A 0
34 *524:159 *2170:A 3.20394e-05
35 *529:16 *1840:A1 1.11786e-05
36 *529:16 *1270:8 0
37 *529:16 *1270:30 0
38 *529:16 *1270:53 0
39 *530:6 *1610:A1 3.19164e-07
40 *530:6 *1840:A1 0
41 *1269:67 *1610:A1 3.65322e-06
42 *1269:67 *1840:A1 3.98851e-05
*RES
1 *2238:Q *1270:6 10 
2 *1270:6 *1270:8 5.67857 
3 *1270:8 *2170:A 26.7143 
4 *1270:8 *1600:A 21.25 
5 *1270:6 *1270:30 1.60714 
6 *1270:30 *1840:A1 32.2857 
7 *1270:30 *1270:53 3.96429 
8 *1270:53 *1610:A1 11.75 
9 *1270:53 *1270:68 11.9286 
10 *1270:68 *1596:A 14.75 
11 *1270:68 *1842:A 5 
*END

*D_NET *1271 0.00100886
*CONN
*P tx O
*I *2239:Q O *D DFFS_X1
*CAP
1 tx 1.33996e-05
2 *2239:Q 1.15663e-05
3 *1271:10 0.000460191
4 *1271:8 0.000458358
5 *1271:10 *1420:14 0
6 *1271:10 *1420:20 0
7 *1881:S *1271:10 0
8 *2130:B1 *1271:8 3.5108e-06
9 *2132:A1 *1271:10 7.11905e-07
10 *2132:A2 *1271:10 0
11 *2239:D *1271:8 1.82068e-05
12 *2239:D *1271:10 4.29184e-05
*RES
1 *2239:Q *1271:8 11.75 
2 *1271:8 *1271:10 51.3572 
3 *1271:10 tx 2.30357 
*END

*D_NET *1272 0.000987529
*CONN
*P tx_done O
*I *2240:Q O *D DFFR_X1
*CAP
1 tx_done 0.000440963
2 *2240:Q 0
3 *1272:6 0.000440963
4 tx_done *2238:CK 0
5 *2157:A tx_done 1.15003e-06
6 *2168:A tx_done 0
7 *2240:D tx_done 0.000104453
*RES
1 *2240:Q *1272:6 10 
2 *1272:6 tx_done 51.2322 
*END

*D_NET *1273 0.000350626
*CONN
*I *1862:A I *D XNOR2_X2
*I *2757:Z O *D LOGIC0_X1
*CAP
1 *1862:A 0.000117047
2 *2757:Z 0.000117047
3 *1860:A2 *1862:A 5.06354e-05
4 *1861:A2 *1862:A 3.96215e-05
5 *1871:B1 *1862:A 1.15841e-05
6 *1234:58 *1862:A 1.46907e-05
*RES
1 *2757:Z *1862:A 25.3571 
*END

*D_NET *1274 0.000568605
*CONN
*I *2002:B2 I *D AOI21_X1
*I *2758:Z O *D LOGIC0_X1
*CAP
1 *2002:B2 0.000184324
2 *2758:Z 0.000184324
3 *1854:A *2002:B2 1.31639e-05
4 *2003:B1 *2002:B2 2.51177e-05
5 *2098:A1 *2002:B2 8.06346e-05
6 *2099:B *2002:B2 0
7 *167:10 *2002:B2 0
8 *169:8 *2002:B2 8.10406e-05
*RES
1 *2758:Z *2002:B2 44 
*END

*D_NET *1275 0.000493299
*CONN
*I *2000:A I *D XNOR2_X1
*I *2759:Z O *D LOGIC0_X1
*CAP
1 *2000:A 0.000174782
2 *2759:Z 0.000174782
3 *2244:RN *2000:A 0
4 *61:42 *2000:A 0
5 *524:254 *2000:A 0
6 *524:302 *2000:A 0.000143734
7 *1243:10 *2000:A 0
*RES
1 *2759:Z *2000:A 30.1786 
*END

*D_NET *1276 0.000886739
*CONN
*I *2006:B2 I *D AOI21_X1
*I *2760:Z O *D LOGIC0_X1
*CAP
1 *2006:B2 0.000116804
2 *2760:Z 0.000116804
3 *1602:A *2006:B2 3.83909e-06
4 *1988:B *2006:B2 9.1033e-05
5 *1989:A *2006:B2 2.32054e-05
6 *2005:A2 *2006:B2 9.36271e-05
7 *2006:B1 *2006:B2 1.15165e-05
8 *171:14 *2006:B2 0.000429909
*RES
1 *2760:Z *2006:B2 45.8929 
*END

*D_NET *1277 0.000505456
*CONN
*I *2009:A1 I *D NAND2_X1
*I *2761:Z O *D LOGIC0_X1
*CAP
1 *2009:A1 8.08592e-05
2 *2761:Z 8.08592e-05
3 *2124:A *2009:A1 6.92212e-05
4 *152:10 *2009:A1 0.000274517
*RES
1 *2761:Z *2009:A1 34.5 
*END

*D_NET *1278 0.000161906
*CONN
*I *2013:B2 I *D AOI21_X1
*I *2762:Z O *D LOGIC0_X1
*CAP
1 *2013:B2 8.0953e-05
2 *2762:Z 8.0953e-05
*RES
1 *2762:Z *2013:B2 27.7143 
*END

*D_NET *1279 0.000607839
*CONN
*I *1977:A I *D XNOR2_X1
*I *2763:Z O *D LOGIC0_X1
*CAP
1 *1977:A 0.000209238
2 *2763:Z 0.000209238
3 *1973:A1 *1977:A 5.05177e-05
4 *1973:A2 *1977:A 0
5 *1976:A1 *1977:A 1.7326e-06
6 *1976:A2 *1977:A 1.93293e-05
7 *1977:B *1977:A 5.17665e-05
8 *139:8 *1977:A 0
9 *141:6 *1977:A 3.41146e-05
10 *181:6 *1977:A 3.19027e-05
11 *511:56 *1977:A 0
*RES
1 *2763:Z *1977:A 45.25 
*END

*D_NET *1280 0.000529501
*CONN
*I *1969:A I *D XOR2_X1
*I *2764:Z O *D LOGIC0_X1
*CAP
1 *1969:A 0.000151151
2 *2764:Z 0.000151151
3 *1965:B *1969:A 1.21096e-05
4 *1965:S *1969:A 5.96136e-06
5 *1967:A *1969:A 0
6 *1969:B *1969:A 7.16188e-07
7 *136:8 *1969:A 0
8 *1248:10 *1969:A 0.000208412
*RES
1 *2764:Z *1969:A 39.6072 
*END

*D_NET *1281 0.00047425
*CONN
*I *2018:A1 I *D NAND2_X1
*I *2765:Z O *D LOGIC0_X1
*CAP
1 *2018:A1 0.000186276
2 *2765:Z 0.000186276
3 *1961:A *2018:A1 0
4 *1962:A *2018:A1 0
5 *2017:A1 *2018:A1 1.46266e-05
6 *2018:A2 *2018:A1 5.52959e-06
7 *2019:A2 *2018:A1 3.53824e-06
8 *126:10 *2018:A1 1.19024e-05
9 *128:8 *2018:A1 1.7644e-05
10 *186:8 *2018:A1 4.84565e-05
*RES
1 *2765:Z *2018:A1 43.1786 
*END

*D_NET *1282 0.000829775
*CONN
*I *2022:B2 I *D AOI21_X1
*I *2766:Z O *D LOGIC0_X1
*CAP
1 *2022:B2 0.000132455
2 *2766:Z 0.000132455
3 *1953:B *2022:B2 0.00025251
4 *1954:A *2022:B2 9.57501e-05
5 *1954:B *2022:B2 5.11191e-06
6 *1956:A *2022:B2 0.000173718
7 *1956:B *2022:B2 6.30856e-06
8 *1957:A *2022:B2 0
9 *99:98 *2022:B2 1.49313e-05
10 *122:8 *2022:B2 1.6535e-05
11 *124:12 *2022:B2 0
*RES
1 *2766:Z *2022:B2 44.5357 
*END

*D_NET *1283 0.00028246
*CONN
*I *1952:A I *D XNOR2_X1
*I *2767:Z O *D LOGIC0_X1
*CAP
1 *1952:A 0.00014123
2 *2767:Z 0.00014123
3 *1955:A *1952:A 0
4 *1955:B *1952:A 0
5 *99:56 *1952:A 0
*RES
1 *2767:Z *1952:A 23.6786 
*END

*D_NET *1284 0.000545312
*CONN
*I *1944:A I *D XOR2_X1
*I *2768:Z O *D LOGIC0_X1
*CAP
1 *1944:A 0.000192371
2 *2768:Z 0.000192371
3 *2024:B1 *1944:A 3.71527e-05
4 *2024:B2 *1944:A 5.11191e-06
5 *110:14 *1944:A 2.55787e-06
6 *111:12 *1944:A 2.1329e-05
7 *118:8 *1944:A 9.44188e-05
*RES
1 *2768:Z *1944:A 43.6786 
*END

*D_NET *1285 0.000671633
*CONN
*I *2027:A1 I *D NAND2_X1
*I *2769:Z O *D LOGIC0_X1
*CAP
1 *2027:A1 8.27165e-05
2 *2769:Z 8.27165e-05
3 *2027:A1 *1505:B2 0.000185133
4 *1492:A1 *2027:A1 4.40445e-05
5 *1936:B *2027:A1 3.73586e-05
6 *1937:B *2027:A1 3.09143e-06
7 *99:134 *2027:A1 0.000236572
*RES
1 *2769:Z *2027:A1 39.3214 
*END

*D_NET *1286 0.000352284
*CONN
*I *2136:A1 I *D NAND2_X1
*I *2770:Z O *D LOGIC0_X1
*CAP
1 *2136:A1 0.000167169
2 *2770:Z 0.000167169
3 *1489:A *2136:A1 0
4 *2032:B *2136:A1 0
5 *2033:B *2136:A1 8.26038e-06
6 *2199:A *2136:A1 9.4073e-06
7 *199:12 *2136:A1 0
8 *200:8 *2136:A1 2.77917e-07
*RES
1 *2770:Z *2136:A1 38.6429 
*END

*D_NET *1287 0.000384468
*CONN
*I *1770:A2 I *D OR3_X1
*I *2771:Z O *D LOGIC0_X1
*CAP
1 *1770:A2 0.000134963
2 *2771:Z 0.000134963
3 *1770:A2 *2235:CK 5.74951e-06
4 *1769:A *1770:A2 0
5 *1771:B1 *1770:A2 0
6 *61:10 *1770:A2 0
7 *1229:21 *1770:A2 0.000102467
8 *1229:36 *1770:A2 6.32461e-06
*RES
1 *2771:Z *1770:A2 37.75 
*END

*D_NET *1288 0.000593396
*CONN
*I *1771:C1 I *D AOI221_X1
*I *2772:Z O *D LOGIC0_X1
*CAP
1 *1771:C1 0.000138409
2 *2772:Z 0.000138409
3 *1771:C1 *1413:14 9.71263e-05
4 *1624:A *1771:C1 0
5 *1625:A *1771:C1 5.59765e-05
6 *1767:B1 *1771:C1 6.59204e-05
7 *1771:A *1771:C1 5.59765e-05
8 *1774:A2 *1771:C1 7.99676e-06
9 *684:8 *1771:C1 3.35822e-05
*RES
1 *2772:Z *1771:C1 43.8572 
*END

*D_NET *1289 0.000551777
*CONN
*I *1772:A I *D AOI21_X1
*I *2773:Z O *D LOGIC0_X1
*CAP
1 *1772:A 0.000175848
2 *2773:Z 0.000175848
3 *1772:A *1661:A1 0
4 *1772:A *1662:B2 0
5 *1625:A *1772:A 0
6 *1625:B *1772:A 0
7 *1661:A2 *1772:A 0
8 *1766:A1 *1772:A 5.76385e-05
9 *1766:A2 *1772:A 0.000142443
*RES
1 *2773:Z *1772:A 42.6429 
*END

*D_NET *1290 0.000536899
*CONN
*I *1775:A1 I *D OR2_X1
*I *2774:Z O *D LOGIC0_X1
*CAP
1 *1775:A1 7.75217e-05
2 *2774:Z 7.75217e-05
3 *1764:A1 *1775:A1 0.000261637
4 *1231:21 *1775:A1 0.000100504
5 *1231:40 *1775:A1 1.97138e-05
*RES
1 *2774:Z *1775:A1 36.5357 
*END

*D_NET *1291 0.000399946
*CONN
*I *1761:A2 I *D NOR3_X1
*I *2775:Z O *D LOGIC0_X1
*CAP
1 *1761:A2 6.53247e-05
2 *2775:Z 6.53247e-05
3 *1761:A2 *1760:B2 2.41394e-05
4 *1758:B *1761:A2 9.91569e-06
5 *1759:A1 *1761:A2 5.54369e-05
6 *1762:B *1761:A2 4.79831e-05
7 *677:8 *1761:A2 6.92191e-05
8 *677:21 *1761:A2 6.26024e-05
*RES
1 *2775:Z *1761:A2 33.8214 
*END

*D_NET *1292 0.000416554
*CONN
*I *1780:A I *D AOI211_X1
*I *2776:Z O *D LOGIC0_X1
*CAP
1 *1780:A 0.000134864
2 *2776:Z 0.000134864
3 *1780:A *1682:B2 8.65744e-06
4 *1780:A *1695:A 0
5 *1566:B *1780:A 0
6 *1696:B2 *1780:A 0
7 *1779:A *1780:A 0.000138169
*RES
1 *2776:Z *1780:A 39.25 
*END

*D_NET *1293 0.000606517
*CONN
*I *1782:A I *D OAI21_X1
*I *2777:Z O *D LOGIC0_X1
*CAP
1 *1782:A 0.000217172
2 *2777:Z 0.000217172
3 *1782:A *1686:A 0
4 *1782:A *1692:A 2.83745e-05
5 *1684:A *1782:A 0
6 *1754:B *1782:A 1.40436e-05
7 *1755:A1 *1782:A 4.24381e-05
8 *1755:A2 *1782:A 5.54348e-05
9 *603:12 *1782:A 3.18816e-05
*RES
1 *2777:Z *1782:A 46.5714 
*END

*D_NET *1294 0.000567459
*CONN
*I *1787:B1 I *D OAI21_X1
*I *2778:Z O *D LOGIC0_X1
*CAP
1 *1787:B1 0.000129185
2 *2778:Z 0.000129185
3 *1787:B1 *1787:B2 2.52965e-06
4 *1787:B1 *1788:A2 0.000299368
5 *1732:A1 *1787:B1 0
6 *1787:A *1787:B1 7.19036e-06
*RES
1 *2778:Z *1787:B1 39.3214 
*END

*D_NET *1295 0.000858554
*CONN
*I *1788:A2 I *D AOI22_X1
*I *2779:Z O *D LOGIC0_X1
*CAP
1 *1788:A2 7.59995e-05
2 *2779:Z 7.59995e-05
3 *1788:A2 *1787:B2 6.83269e-05
4 *1788:A2 *1788:A1 0.00033886
5 *1732:A1 *1788:A2 0
6 *1787:B1 *1788:A2 0.000299368
*RES
1 *2779:Z *1788:A2 40.6072 
*END

*D_NET *1296 0.000504798
*CONN
*I *1790:A2 I *D NOR3_X1
*I *2780:Z O *D LOGIC0_X1
*CAP
1 *1790:A2 0.000127221
2 *2780:Z 0.000127221
3 *1790:A2 *1790:A1 8.26038e-06
4 *1562:A *1790:A2 6.49787e-06
5 *1562:B *1790:A2 0.000106854
6 *1786:B2 *1790:A2 0.000110982
7 *1790:A3 *1790:A2 1.32323e-05
8 *481:10 *1790:A2 3.23873e-06
9 *704:8 *1790:A2 1.29033e-06
*RES
1 *2780:Z *1790:A2 41.1429 
*END

*D_NET *1297 0.000679514
*CONN
*I *1792:C2 I *D OAI211_X1
*I *2781:Z O *D LOGIC0_X1
*CAP
1 *1792:C2 0
2 *2781:Z 0.000116552
3 *1297:18 0.000116552
4 *1744:A *1297:18 1.31814e-05
5 *1746:A1 *1297:18 3.893e-05
6 *1748:A1 *1297:18 1.90574e-06
7 *1748:A2 *1297:18 2.83434e-06
8 *1749:B1 *1297:18 0.000134194
9 *1791:A2 *1297:18 1.74934e-05
10 *1792:C1 *1297:18 4.88948e-05
11 *2140:B *1297:18 1.25904e-05
12 *666:8 *1297:18 0.000146939
13 *667:8 *1297:18 2.94455e-05
*RES
1 *2781:Z *1297:18 46.9286 
2 *1297:18 *1792:C2 5 
*END

*D_NET *1298 0.000277422
*CONN
*I *1752:B2 I *D AOI21_X1
*I *2782:Z O *D LOGIC0_X1
*CAP
1 *1752:B2 0.000112552
2 *2782:Z 0.000112552
3 *1749:B1 *1752:B2 2.65895e-05
4 *1792:A *1752:B2 4.76429e-07
5 *662:12 *1752:B2 2.52511e-05
*RES
1 *2782:Z *1752:B2 34.5 
*END

*D_NET *1299 0.00046377
*CONN
*I *1794:A I *D XNOR2_X1
*I *2783:Z O *D LOGIC0_X1
*CAP
1 *1794:A 0.000202353
2 *2783:Z 0.000202353
3 *1734:A *1794:A 0
4 *1738:A *1794:A 0
5 *1738:B2 *1794:A 6.82202e-07
6 *1740:B2 *1794:A 2.23871e-06
7 *1794:B *1794:A 5.61423e-05
*RES
1 *2783:Z *1794:A 31.1072 
*END

*D_NET *1300 0.000418445
*CONN
*I *1733:A I *D XNOR2_X1
*I *2784:Z O *D LOGIC0_X1
*CAP
1 *1733:A 0.000204692
2 *2784:Z 0.000204692
3 *1733:A *1815:A 0
4 *1732:A2 *1733:A 0
5 *1795:A1 *1733:A 0
6 *1795:A2 *1733:A 0
7 *652:10 *1733:A 9.06043e-06
*RES
1 *2784:Z *1733:A 30.1786 
*END

*D_NET *1301 0.000316811
*CONN
*I *1819:B2 I *D AOI21_X1
*I *2785:Z O *D LOGIC0_X1
*CAP
1 *1819:B2 0.000156643
2 *2785:Z 0.000156643
3 *1819:B2 *1737:A 3.52448e-06
*RES
1 *2785:Z *1819:B2 37.0714 
*END

*D_NET *1302 0.000408237
*CONN
*I *1821:C2 I *D AOI211_X1
*I *2786:Z O *D LOGIC0_X1
*CAP
1 *1821:C2 0.000134051
2 *2786:Z 0.000134051
3 *1821:C2 *1815:A 0.000133653
4 *1731:A *1821:C2 0
5 *1816:A1 *1821:C2 0
6 *1821:A *1821:C2 6.48231e-06
*RES
1 *2786:Z *1821:C2 36.3929 
*END

*D_NET *1303 0.00077611
*CONN
*I *1802:B2 I *D OAI21_X1
*I *2787:Z O *D LOGIC0_X1
*CAP
1 *1802:B2 0.000123882
2 *2787:Z 0.000123882
3 *1799:A1 *1802:B2 0.000324122
4 *1814:B2 *1802:B2 8.08846e-05
5 *1822:C1 *1802:B2 4.1124e-05
6 *1822:C2 *1802:B2 0
7 *1823:A2 *1802:B2 0
8 *718:8 *1802:B2 8.22158e-05
*RES
1 *2787:Z *1802:B2 42.5 
*END

*D_NET *1304 0.000435028
*CONN
*I *1811:A1 I *D NAND2_X1
*I *2788:Z O *D LOGIC0_X1
*CAP
1 *1811:A1 0.000209415
2 *2788:Z 0.000209415
3 *1705:A *1811:A1 0
4 *1705:B *1811:A1 0
5 *1801:B *1811:A1 1.61988e-05
*RES
1 *2788:Z *1811:A1 43.1429 
*END

*D_NET *1305 0.000611579
*CONN
*I *1825:A1 I *D NAND2_X1
*I *2789:Z O *D LOGIC0_X1
*CAP
1 *1825:A1 0.000119757
2 *2789:Z 0.000119757
3 *1825:A1 *1718:C2 0.000222536
4 *1825:A1 *1826:A1 1.34524e-05
5 *1710:A *1825:A1 2.68115e-05
6 *1718:B2 *1825:A1 0.000108205
7 *1825:A2 *1825:A1 8.43215e-07
8 *1826:A2 *1825:A1 2.16072e-07
9 *748:10 *1825:A1 0
*RES
1 *2789:Z *1825:A1 40 
*END

*D_NET *1306 0.000694651
*CONN
*I *1826:A1 I *D NOR2_X1
*I *2790:Z O *D LOGIC0_X1
*CAP
1 *1826:A1 9.96933e-05
2 *2790:Z 9.96933e-05
3 *1826:A1 *1718:C2 0.000275304
4 *1645:B *1826:A1 0
5 *1718:B2 *1826:A1 4.32319e-05
6 *1719:B2 *1826:A1 0.000160182
7 *1825:A1 *1826:A1 1.34524e-05
8 *1826:A2 *1826:A1 3.09411e-06
*RES
1 *2790:Z *1826:A1 39.3214 
*END

*D_NET *1307 0.000707524
*CONN
*I *1718:C2 I *D AOI221_X1
*I *2791:Z O *D LOGIC0_X1
*CAP
1 *1718:C2 0.000100512
2 *2791:Z 0.000100512
3 *1710:A *1718:C2 8.6587e-06
4 *1825:A1 *1718:C2 0.000222536
5 *1826:A1 *1718:C2 0.000275304
*RES
1 *2791:Z *1718:C2 39.9286 
*END

*D_NET *1308 0.000603375
*CONN
*I *1824:A1 I *D NAND2_X1
*I *2792:Z O *D LOGIC0_X1
*CAP
1 *1824:A1 0.00012523
2 *2792:Z 0.00012523
3 *1713:A1 *1824:A1 0.000107955
4 *1718:C1 *1824:A1 7.19036e-06
5 *1719:A1 *1824:A1 0
6 *1824:A2 *1824:A1 1.66988e-05
7 *1827:A1 *1824:A1 0
8 *1827:A2 *1824:A1 0
9 *631:12 *1824:A1 5.91963e-06
10 *631:16 *1824:A1 0.000210039
11 *632:8 *1824:A1 5.11191e-06
*RES
1 *2792:Z *1824:A1 39.3214 
*END

*D_NET *1309 0.00035493
*CONN
*I *1720:A I *D XNOR2_X1
*I *2793:Z O *D LOGIC0_X1
*CAP
1 *1720:A 0.000153385
2 *2793:Z 0.000153385
3 *1720:A *1707:A 1.59719e-05
4 *1707:B *1720:A 3.58094e-06
5 *1708:A *1720:A 0
6 *1708:B1 *1720:A 0
7 *1720:B *1720:A 2.86077e-05
8 *624:6 *1720:A 0
9 *626:6 *1720:A 0
*RES
1 *2793:Z *1720:A 26.6786 
*END

*D_NET *1310 0.000110953
*CONN
*I *1722:C1 I *D AOI221_X1
*I *2794:Z O *D LOGIC0_X1
*CAP
1 *1722:C1 5.54767e-05
2 *2794:Z 5.54767e-05
*RES
1 *2794:Z *1722:C1 26.3571 
*END

*D_NET *1311 0.000253522
*CONN
*I *1698:B2 I *D AOI21_X1
*I *2795:Z O *D LOGIC0_X1
*CAP
1 *1698:B2 0.000119195
2 *2795:Z 0.000119195
3 *1698:B2 *1699:C2 1.51313e-05
4 *1693:B2 *1698:B2 0
*RES
1 *2795:Z *1698:B2 33.8214 
*END

*D_NET *1312 0.000415973
*CONN
*I *1699:C2 I *D OAI211_X1
*I *2796:Z O *D LOGIC0_X1
*CAP
1 *1699:C2 0.000191379
2 *2796:Z 0.000191379
3 *1681:B1 *1699:C2 0
4 *1681:B2 *1699:C2 0
5 *1698:A *1699:C2 2.16072e-07
6 *1698:B2 *1699:C2 1.51313e-05
7 *1699:A *1699:C2 4.48283e-06
8 *1699:B *1699:C2 1.25407e-05
9 *609:15 *1699:C2 8.43215e-07
*RES
1 *2796:Z *1699:C2 41.8214 
*END

*D_NET *1313 0.000299545
*CONN
*I *1686:A I *D XNOR2_X1
*I *2797:Z O *D LOGIC0_X1
*CAP
1 *1686:A 0.000132307
2 *2797:Z 0.000132307
3 *1680:A *1686:A 0
4 *1685:A1 *1686:A 2.23871e-06
5 *1782:A *1686:A 0
6 *603:12 *1686:A 3.2693e-05
*RES
1 *2797:Z *1686:A 23.6786 
*END

*D_NET *1314 0.000396587
*CONN
*I *1682:B2 I *D AOI21_X1
*I *2798:Z O *D LOGIC0_X1
*CAP
1 *1682:B2 0.000157268
2 *2798:Z 0.000157268
3 *1677:A *1682:B2 9.11897e-09
4 *1694:A2 *1682:B2 0
5 *1696:B2 *1682:B2 2.16772e-06
6 *1697:B1 *1682:B2 4.11427e-05
7 *1779:A *1682:B2 8.8323e-06
8 *1780:A *1682:B2 8.65744e-06
9 *597:12 *1682:B2 0
10 *599:8 *1682:B2 1.35139e-05
11 *599:27 *1682:B2 7.72792e-06
*RES
1 *2798:Z *1682:B2 38.4286 
*END

*D_NET *1315 0.000455527
*CONN
*I *1694:A1 I *D NAND2_X1
*I *2799:Z O *D LOGIC0_X1
*CAP
1 *1694:A1 0.000116441
2 *2799:Z 0.000116441
3 *1681:B1 *1694:A1 8.22447e-06
4 *1681:B2 *1694:A1 0
5 *1697:B1 *1694:A1 1.3143e-06
6 *1699:A *1694:A1 0.000116162
7 *599:27 *1694:A1 4.11214e-05
8 *601:12 *1694:A1 5.58225e-05
*RES
1 *2799:Z *1694:A1 37.2143 
*END

*D_NET *1316 0.000426599
*CONN
*I *1724:B2 I *D AOI21_X1
*I *2800:Z O *D LOGIC0_X1
*CAP
1 *1724:B2 0.000155252
2 *2800:Z 0.000155252
3 *1677:A *1724:B2 0
4 *1678:A *1724:B2 8.66136e-05
5 *1678:B *1724:B2 1.04632e-05
6 *1724:B1 *1724:B2 8.43215e-07
7 *1726:B *1724:B2 2.39679e-06
8 *596:12 *1724:B2 1.56073e-06
9 *597:12 *1724:B2 1.42174e-05
*RES
1 *2800:Z *1724:B2 40.4643 
*END

*D_NET *1317 0.000662332
*CONN
*I *1672:A1 I *D NOR2_X1
*I *2801:Z O *D LOGIC0_X1
*CAP
1 *1672:A1 0.000204261
2 *2801:Z 0.000204261
3 *1644:A *1672:A1 0
4 *1646:A1 *1672:A1 0
5 *1649:A *1672:A1 0
6 *1672:A2 *1672:A1 8.14262e-05
7 *1714:A *1672:A1 0
8 *1831:A1 *1672:A1 0
9 *566:10 *1672:A1 0.000172385
*RES
1 *2801:Z *1672:A1 45.4286 
*END

*D_NET *1318 0.00062042
*CONN
*I *1649:C1 I *D AOI211_X1
*I *2802:Z O *D LOGIC0_X1
*CAP
1 *1649:C1 9.57974e-05
2 *2802:Z 9.57974e-05
3 *1649:C1 *1674:B2 0.00023632
4 *1643:A1 *1649:C1 9.8611e-06
5 *1649:B *1649:C1 2.75346e-06
6 *1650:A1 *1649:C1 4.80515e-06
7 *1650:A2 *1649:C1 0
8 *1673:A1 *1649:C1 4.92317e-06
9 *1674:B1 *1649:C1 5.54348e-05
10 *1675:A2 *1649:C1 0
11 *1675:A4 *1649:C1 9.80283e-05
12 *561:14 *1649:C1 1.66988e-05
*RES
1 *2802:Z *1649:C1 39.3214 
*END

*D_NET *1319 0.000592264
*CONN
*I *1674:B2 I *D AOI21_X1
*I *2803:Z O *D LOGIC0_X1
*CAP
1 *1674:B2 0.000146694
2 *2803:Z 0.000146694
3 *1649:C1 *1674:B2 0.00023632
4 *1671:A2 *1674:B2 0
5 *1671:A4 *1674:B2 0
6 *1673:A1 *1674:B2 6.25556e-05
*RES
1 *2803:Z *1674:B2 41.1429 
*END

*D_NET *1320 0.000372069
*CONN
*I *1655:A1 I *D NAND2_X1
*I *2804:Z O *D LOGIC0_X1
*CAP
1 *1655:A1 0.000144748
2 *2804:Z 0.000144748
3 *1655:A1 *1654:A1 4.80399e-06
4 *1636:A *1655:A1 4.03382e-05
5 *1637:A *1655:A1 0
6 *1637:B *1655:A1 1.21774e-06
7 *555:14 *1655:A1 3.62122e-05
*RES
1 *2804:Z *1655:A1 38.4286 
*END

*D_NET *1321 0.000281124
*CONN
*I *1634:A I *D XNOR2_X1
*I *2805:Z O *D LOGIC0_X1
*CAP
1 *1634:A 0.000126344
2 *2805:Z 0.000126344
3 *1632:A *1634:A 0
4 *1658:A1 *1634:A 0
5 *1658:A2 *1634:A 0
6 *1658:A3 *1634:A 1.28122e-06
7 *553:10 *1634:A 2.71533e-05
*RES
1 *2805:Z *1634:A 23.6786 
*END

*D_NET *1322 0.000850821
*CONN
*I *1630:C2 I *D AOI211_X1
*I *2806:Z O *D LOGIC0_X1
*CAP
1 *1630:C2 0.000177875
2 *2806:Z 0.000177875
3 *1630:C2 *1665:A1 0
4 *1629:B *1630:C2 0.000144256
5 *1630:A *1630:C2 2.55787e-06
6 *1630:B *1630:C2 7.40328e-06
7 *1630:C1 *1630:C2 8.43215e-07
8 *1671:A4 *1630:C2 0.000156459
9 *541:8 *1630:C2 0
10 *545:8 *1630:C2 0.00018355
*RES
1 *2806:Z *1630:C2 45.8572 
*END

*D_NET *1323 0.000569473
*CONN
*I *1668:B2 I *D AOI21_X1
*I *2807:Z O *D LOGIC0_X1
*CAP
1 *1668:B2 0.000161804
2 *2807:Z 0.000161804
3 *1668:B2 *1666:A 5.87096e-05
4 *1668:B2 *1667:A1 0
5 *1620:A *1668:B2 0
6 *1621:A *1668:B2 0
7 *1627:A *1668:B2 2.32458e-06
8 *1668:A *1668:B2 7.16188e-07
9 *1669:B2 *1668:B2 0.000182514
10 *547:27 *1668:B2 1.60038e-06
*RES
1 *2807:Z *1668:B2 41.3929 
*END

*D_NET *1324 0.000499367
*CONN
*I *1665:A1 I *D AND2_X1
*I *2808:Z O *D LOGIC0_X1
*CAP
1 *1665:A1 0.000142456
2 *2808:Z 0.000142456
3 *1626:A *1665:A1 7.66675e-07
4 *1626:B *1665:A1 0
5 *1629:C2 *1665:A1 0.000182215
6 *1630:A *1665:A1 1.04526e-05
7 *1630:C2 *1665:A1 0
8 *1665:A2 *1665:A1 2.39679e-06
9 *1670:C2 *1665:A1 7.19036e-06
10 *541:8 *1665:A1 1.14339e-05
11 *545:8 *1665:A1 0
*RES
1 *2808:Z *1665:A1 39.3214 
*END

*D_NET *1325 0.000552513
*CONN
*I *1662:B2 I *D AOI21_X1
*I *2809:Z O *D LOGIC0_X1
*CAP
1 *1662:B2 0.000125689
2 *2809:Z 0.000125689
3 *1662:B2 *1661:A1 0.000198918
4 *1625:B *1662:B2 2.23879e-05
5 *1626:A *1662:B2 4.16057e-05
6 *1661:A2 *1662:B2 1.72191e-05
7 *1662:A *1662:B2 2.00438e-05
8 *1772:A *1662:B2 0
9 *544:8 *1662:B2 9.62051e-07
*RES
1 *2809:Z *1662:B2 40.4286 
*END

*D_NET *1326 0.000469023
*CONN
*I *1623:A I *D XOR2_X1
*I *2810:Z O *D LOGIC0_X1
*CAP
1 *1623:A 5.94089e-05
2 *2810:Z 5.94089e-05
3 *536:10 *1623:A 0.000108203
4 *537:8 *1623:A 0.000134734
5 *751:8 *1623:A 0.000107268
*RES
1 *2810:Z *1623:A 34.5 
*END

*D_NET *1327 0.00071141
*CONN
*I *1571:A1 I *D AND2_X1
*I *2811:Z O *D LOGIC0_X1
*CAP
1 *1571:A1 0
2 *2811:Z 0.000263152
3 *1327:14 0.000263152
4 *1327:14 *1571:A2 4.29923e-05
5 *1327:14 *2243:CK 1.28987e-05
6 *1569:A *1327:14 2.5504e-06
7 *1570:A *1327:14 4.66389e-05
8 *1572:B2 *1327:14 1.39839e-06
9 *1573:B1 *1327:14 3.23841e-05
10 *2003:B2 *1327:14 0
11 *2103:A1 *1327:14 3.89741e-05
12 *2127:A *1327:14 0
13 *61:227 *1327:14 0
14 *511:140 *1327:14 7.26814e-06
*RES
1 *2811:Z *1327:14 46.5357 
2 *1327:14 *1571:A1 5 
*END

*D_NET *1328 0.000469478
*CONN
*I *1572:A2 I *D OAI33_X1
*I *2812:Z O *D LOGIC0_X1
*CAP
1 *1572:A2 0.000152276
2 *2812:Z 0.000152276
3 *1572:A2 *1780:C2 6.83382e-05
4 *1566:A *1572:A2 5.16435e-05
5 *1566:B *1572:A2 7.14424e-06
6 *1568:A *1572:A2 1.83788e-06
7 *1568:B2 *1572:A2 2.54822e-05
8 *1572:A1 *1572:A2 7.72537e-06
9 *1572:A3 *1572:A2 2.75346e-06
*RES
1 *2812:Z *1572:A2 41.8214 
*END

*D_NET *1329 0.000497053
*CONN
*I *1574:A2 I *D OR3_X1
*I *2813:Z O *D LOGIC0_X1
*CAP
1 *1574:A2 0.000208678
2 *2813:Z 0.000208678
3 *1562:A *1574:A2 2.4881e-05
4 *1563:B1 *1574:A2 8.56759e-06
5 *1564:A2 *1574:A2 2.44301e-05
6 *1574:A1 *1574:A2 2.39679e-06
7 *1574:A3 *1574:A2 7.19036e-06
8 *2100:A1 *1574:A2 1.22315e-05
9 *511:130 *1574:A2 0
*RES
1 *2813:Z *1574:A2 44.5357 
*END

*D_NET *1330 0.000700891
*CONN
*I *1576:A2 I *D NOR3_X1
*I *2814:Z O *D LOGIC0_X1
*CAP
1 *1576:A2 0.00015877
2 *2814:Z 0.00015877
3 *1576:A2 *1419:23 6.15137e-06
4 *1554:A1 *1576:A2 3.47242e-06
5 *1558:A2 *1576:A2 1.43238e-06
6 *1559:A *1576:A2 2.52965e-06
7 *1560:A1 *1576:A2 0
8 *1560:A2 *1576:A2 2.52965e-06
9 *1576:A1 *1576:A2 1.30565e-05
10 *1577:A *1576:A2 4.72944e-05
11 *1577:B1 *1576:A2 5.11191e-06
12 *1577:B2 *1576:A2 4.24423e-05
13 *1577:C2 *1576:A2 0.000219523
14 *1578:B2 *1576:A2 3.98918e-06
15 *472:14 *1576:A2 9.54428e-06
16 *476:12 *1576:A2 1.91743e-05
17 *1244:16 *1576:A2 7.10056e-06
*RES
1 *2814:Z *1576:A2 44.1429 
*END

*D_NET *1331 0.000748513
*CONN
*I *1561:B1 I *D AOI21_X1
*I *2815:Z O *D LOGIC0_X1
*CAP
1 *1561:B1 0.000160268
2 *2815:Z 0.000160268
3 *1554:A1 *1561:B1 0
4 *1559:A *1561:B1 3.03633e-05
5 *1560:A1 *1561:B1 0
6 *1561:B2 *1561:B1 8.43215e-07
7 *1577:C2 *1561:B1 0.000220658
8 *1578:B2 *1561:B1 0.000116452
9 *2134:B2 *1561:B1 0
10 *476:18 *1561:B1 5.24698e-05
11 *1244:6 *1561:B1 4.79358e-06
12 *1244:16 *1561:B1 2.39679e-06
*RES
1 *2815:Z *1561:B1 44.2143 
*END

*D_NET *1332 0.000440799
*CONN
*I *1552:A I *D AOI21_X1
*I *2816:Z O *D LOGIC0_X1
*CAP
1 *1552:A 0.00016279
2 *2816:Z 0.00016279
3 *1551:A2 *1552:A 2.08416e-06
4 *1552:B1 *1552:A 7.19036e-06
5 *1130:18 *1552:A 3.85883e-05
6 *1244:16 *1552:A 6.73568e-05
*RES
1 *2816:Z *1552:A 41.1429 
*END

*D_NET *1333 0.000830082
*CONN
*I *1545:A2 I *D AOI22_X1
*I *2817:Z O *D LOGIC0_X1
*CAP
1 *1545:A2 0.000170294
2 *2817:Z 0.000170294
3 *1545:A2 *1419:58 1.41532e-05
4 *1545:A1 *1545:A2 2.39679e-06
5 *1545:B1 *1545:A2 2.25849e-06
6 *1546:A1 *1545:A2 1.86809e-06
7 *1580:A *1545:A2 0
8 *1848:A *1545:A2 1.0794e-06
9 *1980:B *1545:A2 1.38599e-05
10 *524:102 *1545:A2 6.54588e-06
11 *524:104 *1545:A2 1.66988e-05
12 *766:10 *1545:A2 0.00040313
13 *1102:67 *1545:A2 2.75047e-05
*RES
1 *2817:Z *1545:A2 47.1786 
*END

*D_NET *1334 0.000561418
*CONN
*I *1579:A2 I *D NOR3_X1
*I *2818:Z O *D LOGIC0_X1
*CAP
1 *1579:A2 9.71054e-05
2 *2818:Z 9.71054e-05
3 *1543:B *1579:A2 0
4 *1546:A2 *1579:A2 8.19658e-05
5 *1579:A1 *1579:A2 7.72792e-06
6 *1579:A3 *1579:A2 3.8984e-05
7 *462:10 *1579:A2 0.000146117
8 *1102:43 *1579:A2 0
9 *1246:12 *1579:A2 2.09871e-05
10 *1246:23 *1579:A2 6.69969e-05
11 *1246:34 *1579:A2 4.42782e-06
*RES
1 *2818:Z *1579:A2 37.9643 
*END

*D_NET *1335 0.000408382
*CONN
*I *1581:A2 I *D NOR3_X1
*I *2819:Z O *D LOGIC0_X1
*CAP
1 *1581:A2 0.000120216
2 *2819:Z 0.000120216
3 *1581:A3 *1581:A2 1.72426e-05
4 *1972:A *1581:A2 1.32167e-05
5 *2075:A1 *1581:A2 0.000107955
6 *1247:21 *1581:A2 2.9536e-05
*RES
1 *2819:Z *1581:A2 36.5357 
*END

*D_NET *1336 0.000571403
*CONN
*I *1582:A I *D XNOR2_X1
*I *2820:Z O *D LOGIC0_X1
*CAP
1 *1582:A 0.000165996
2 *2820:Z 0.000165996
3 *1582:A *1418:20 8.03538e-05
4 *1582:A *1418:43 3.70386e-05
5 *1532:A1 *1582:A 4.26671e-06
6 *1533:A1 *1582:A 3.23363e-05
7 *1533:A2 *1582:A 7.74523e-05
8 *1582:B *1582:A 7.9624e-06
*RES
1 *2820:Z *1582:A 33.4643 
*END

*D_NET *1337 0.000456789
*CONN
*I *1526:A I *D XNOR2_X1
*I *2821:Z O *D LOGIC0_X1
*CAP
1 *1526:A 0.0002037
2 *2821:Z 0.0002037
3 *1526:A *1418:43 0
4 *1526:B *1526:A 4.93896e-05
5 *1534:B1 *1526:A 0
6 *2062:A *1526:A 0
7 *2063:B2 *1526:A 0
8 *511:39 *1526:A 0
*RES
1 *2821:Z *1526:A 30.8572 
*END

*D_NET *1338 0.000534453
*CONN
*I *1519:B2 I *D OAI21_X1
*I *2822:Z O *D LOGIC0_X1
*CAP
1 *1519:B2 0.000118095
2 *2822:Z 0.000118095
3 *1515:A1 *1519:B2 0.000250107
4 *1515:A2 *1519:B2 0
5 *1519:B1 *1519:B2 2.52965e-06
6 *1520:A1 *1519:B2 2.39679e-06
7 *1523:A1 *1519:B2 0
8 *1538:B2 *1519:B2 1.2453e-05
9 *2059:A1 *1519:B2 0
10 *2059:A2 *1519:B2 0
11 *434:8 *1519:B2 3.07768e-05
*RES
1 *2822:Z *1519:B2 37.9643 
*END

*D_NET *1339 0.000653952
*CONN
*I *1535:A1 I *D NAND2_X1
*I *2823:Z O *D LOGIC0_X1
*CAP
1 *1535:A1 0.000248985
2 *2823:Z 0.000248985
3 *1535:A1 *2253:CK 0
4 *1518:A *1535:A1 5.67661e-05
5 *1535:A2 *1535:A1 9.44188e-05
6 *2045:A *1535:A1 0
7 *2045:B2 *1535:A1 0
8 *524:210 *1535:A1 4.79658e-06
*RES
1 *2823:Z *1535:A1 47.25 
*END

*D_NET *1340 0.000193857
*CONN
*I *1510:A1 I *D NOR2_X1
*I *2824:Z O *D LOGIC0_X1
*CAP
1 *1510:A1 9.69284e-05
2 *2824:Z 9.69284e-05
3 *511:8 *1510:A1 0
*RES
1 *2824:Z *1510:A1 31.1071 
*END

*D_NET *1341 0.000575851
*CONN
*I *1504:B2 I *D AOI21_X1
*I *2825:Z O *D LOGIC0_X1
*CAP
1 *1504:B2 0.000136133
2 *2825:Z 0.000136133
3 *1496:A *1504:B2 0
4 *1503:B1 *1504:B2 0.000102626
5 *1504:A *1504:B2 0.000145606
6 *1504:B1 *1504:B2 8.43215e-07
7 *413:10 *1504:B2 4.24402e-05
8 *414:10 *1504:B2 1.20697e-05
*RES
1 *2825:Z *1504:B2 39.8929 
*END

*D_NET *1342 0.000662762
*CONN
*I *1505:B2 I *D OAI21_X1
*I *2826:Z O *D LOGIC0_X1
*CAP
1 *1505:B2 8.07008e-05
2 *2826:Z 8.07008e-05
3 *1492:A1 *1505:B2 1.81046e-05
4 *1492:A2 *1505:B2 2.67697e-05
5 *1493:B2 *1505:B2 0
6 *1935:B *1505:B2 0.000223578
7 *1936:B *1505:B2 4.50258e-05
8 *2027:A1 *1505:B2 0.000185133
9 *99:147 *1505:B2 1.90574e-06
10 *410:12 *1505:B2 8.43215e-07
*RES
1 *2826:Z *1505:B2 39.1429 
*END

*D_NET *1343 0.000450843
*CONN
*I *1488:A I *D XOR2_X1
*I *2827:Z O *D LOGIC0_X1
*CAP
1 *1488:A 0.000206173
2 *2827:Z 0.000206173
3 *1423:B2 *1488:A 3.02351e-05
4 *1486:B *1488:A 0
5 *1487:A1 *1488:A 0
6 *1488:B *1488:A 8.26038e-06
7 *1491:B *1488:A 0
8 *1505:A *1488:A 0
9 *407:12 *1488:A 0
10 *408:10 *1488:A 0
11 *410:12 *1488:A 0
12 *1240:27 *1488:A 0
*RES
1 *2827:Z *1488:A 41.9643 
*END

*D_NET *1344 0.000462306
*CONN
*I *1586:A1 I *D NAND2_X1
*I *2828:Z O *D LOGIC0_X1
*CAP
1 *1586:A1 0.000201493
2 *2828:Z 0.000201493
3 *1468:A *1586:A1 5.23231e-05
4 *1586:A2 *1586:A1 8.43215e-07
5 *1589:A1 *1586:A1 0
6 *2191:B *1586:A1 4.9678e-06
7 *390:14 *1586:A1 1.18589e-06
*RES
1 *2828:Z *1586:A1 43.1429 
*END

*D_NET *1345 0.000484078
*CONN
*I *1587:A1 I *D NOR2_X1
*I *2829:Z O *D LOGIC0_X1
*CAP
1 *1587:A1 0.00014183
2 *2829:Z 0.00014183
3 *1587:A1 *1471:A 0
4 *1470:A1 *1587:A1 3.60121e-05
5 *1470:A2 *1587:A1 1.90574e-06
6 *1472:A *1587:A1 8.19658e-05
7 *1472:B2 *1587:A1 6.92212e-05
8 *1586:A2 *1587:A1 2.52965e-06
9 *2173:A *1587:A1 0
10 *390:8 *1587:A1 1.90574e-06
11 *390:14 *1587:A1 6.87807e-06
*RES
1 *2829:Z *1587:A1 38.6786 
*END

*D_NET *1346 0.000422934
*CONN
*I *1474:A1 I *D AND2_X1
*I *2830:Z O *D LOGIC0_X1
*CAP
1 *1474:A1 0.000150752
2 *2830:Z 0.000150752
3 *1467:A2 *1474:A1 0
4 *1474:A2 *1474:A1 2.39679e-06
5 *1588:A2 *1474:A1 2.73345e-05
6 *1588:A3 *1474:A1 1.61946e-05
7 *386:10 *1474:A1 3.55965e-05
8 *393:8 *1474:A1 3.99073e-05
*RES
1 *2830:Z *1474:A1 40.4643 
*END

*D_NET *1347 0.000322488
*CONN
*I *1476:B2 I *D OAI21_X1
*I *2831:Z O *D LOGIC0_X1
*CAP
1 *1476:B2 0.000153301
2 *2831:Z 0.000153301
3 *1476:A *1476:B2 6.03476e-06
4 *375:8 *1476:B2 9.85092e-06
*RES
1 *2831:Z *1476:B2 37.8929 
*END

*D_NET *1348 0.000568751
*CONN
*I *1456:A I *D XOR2_X1
*I *2832:Z O *D LOGIC0_X1
*CAP
1 *1456:A 0.000155143
2 *2832:Z 0.000155143
3 *1428:A1 *1456:A 0.000133405
4 *1453:A2 *1456:A 0
5 *1455:A2 *1456:A 3.06504e-05
6 *1456:B *1456:A 7.72537e-06
7 *1479:A2 *1456:A 7.60055e-05
8 *371:12 *1456:A 0
9 *373:10 *1456:A 1.06786e-05
*RES
1 *2832:Z *1456:A 42.2143 
*END

*D_NET *1349 0.000480292
*CONN
*I *1480:A I *D XOR2_X1
*I *2833:Z O *D LOGIC0_X1
*CAP
1 *1480:A 0.0001208
2 *2833:Z 0.0001208
3 *1480:A *1449:A 0
4 *1439:B *1480:A 0
5 *1442:A1 *1480:A 0.000238691
6 *1443:B1 *1480:A 0
7 *1059:14 *1480:A 0
*RES
1 *2833:Z *1480:A 37.2143 
*END

*D_NET *1350 0.000385659
*CONN
*I *1438:A I *D XOR2_X1
*I *2834:Z O *D LOGIC0_X1
*CAP
1 *1438:A 0.000173246
2 *2834:Z 0.000173246
3 *1438:A *1444:A 1.03226e-06
4 *1445:A *1438:A 0
5 *1445:B *1438:A 0
6 *1445:C1 *1438:A 3.13177e-05
7 *357:10 *1438:A 6.81719e-06
*RES
1 *2834:Z *1438:A 40.2857 
*END

*D_NET *1351 0.000132364
*CONN
*I *1446:A I *D XNOR2_X1
*I *2835:Z O *D LOGIC0_X1
*CAP
1 *1446:A 4.97577e-05
2 *2835:Z 4.97577e-05
3 *1433:A1 *1446:A 0
4 *1446:B *1446:A 8.26038e-06
5 *1447:A2 *1446:A 6.56007e-06
6 *364:16 *1446:A 1.80284e-05
*RES
1 *2835:Z *1446:A 15.75 
*END

*D_NET *1352 0.000347034
*CONN
*I *1429:A I *D XNOR2_X1
*I *2836:Z O *D LOGIC0_X1
*CAP
1 *1429:A 0.000142523
2 *2836:Z 0.000142523
3 *1430:A *1429:A 1.1766e-05
4 *1431:A2 *1429:A 1.52083e-06
5 *1434:A *1429:A 0
6 *1434:B1 *1429:A 3.61803e-05
7 *400:14 *1429:A 1.25215e-05
*RES
1 *2836:Z *1429:A 35.7143 
*END

*D_NET *1353 0.000596521
*CONN
*I *2201:A1 I *D NAND2_X1
*I *2837:Z O *D LOGIC0_X1
*CAP
1 *2201:A1 0.000197655
2 *2837:Z 0.000197655
3 *2201:A1 *2197:A 5.01029e-05
4 *1423:A *2201:A1 0
5 *1424:A *2201:A1 0
6 *1425:A4 *2201:A1 3.64759e-07
7 *1487:A1 *2201:A1 0
8 *2201:A2 *2201:A1 3.65322e-06
9 *2203:A1 *2201:A1 1.44489e-05
10 *2204:A *2201:A1 0
11 *2204:B2 *2201:A1 0.000118019
12 *317:8 *2201:A1 1.46216e-05
*RES
1 *2837:Z *2201:A1 44.0714 
*END

*D_NET *1354 0.000483762
*CONN
*I *2198:A1 I *D OR2_X1
*I *2838:Z O *D LOGIC0_X1
*CAP
1 *2198:A1 0.000145895
2 *2838:Z 0.000145895
3 *1423:A *2198:A1 0
4 *1424:B1 *2198:A1 4.18985e-05
5 *1424:B2 *2198:A1 4.47984e-05
6 *2194:A *2198:A1 0
7 *2202:B1 *2198:A1 0
8 *313:12 *2198:A1 0.000105274
9 *315:8 *2198:A1 0
*RES
1 *2838:Z *2198:A1 39.25 
*END

*D_NET *1355 0.000468995
*CONN
*I *2202:A1 I *D AOI22_X1
*I *2839:Z O *D LOGIC0_X1
*CAP
1 *2202:A1 0.000164898
2 *2839:Z 0.000164898
3 *2194:A *2202:A1 9.09536e-05
4 *2195:A *2202:A1 0
5 *2196:A2 *2202:A1 4.32319e-05
6 *2199:B *2202:A1 0
7 *311:8 *2202:A1 5.01336e-06
*RES
1 *2839:Z *2202:A1 40.6429 
*END

*D_NET *1356 0.000513798
*CONN
*I *2209:B2 I *D AOI21_X1
*I *2840:Z O *D LOGIC0_X1
*CAP
1 *2209:B2 0.00018882
2 *2840:Z 0.00018882
3 *1426:B *2209:B2 0
4 *1590:A1 *2209:B2 4.31185e-06
5 *1605:B2 *2209:B2 2.31008e-05
6 *2193:B *2209:B2 0.000108745
7 *508:8 *2209:B2 0
*RES
1 *2840:Z *2209:B2 41.1429 
*END

*D_NET *1357 0.000464003
*CONN
*I *2206:A1 I *D NAND2_X1
*I *2841:Z O *D LOGIC0_X1
*CAP
1 *2206:A1 0.00017287
2 *2841:Z 0.00017287
3 *2206:A1 *2221:B2 0
4 *2184:A *2206:A1 1.37673e-05
5 *2186:A *2206:A1 9.24246e-06
6 *2186:B2 *2206:A1 9.44188e-05
7 *2187:C1 *2206:A1 0
8 *2211:A *2206:A1 8.33759e-07
9 *2223:B2 *2206:A1 0
*RES
1 *2841:Z *2206:A1 40.2143 
*END

*D_NET *1358 0.000424026
*CONN
*I *2187:C2 I *D AOI211_X2
*I *2842:Z O *D LOGIC0_X1
*CAP
1 *2187:C2 0.000145902
2 *2842:Z 0.000145902
3 *2186:A *2187:C2 0
4 *2187:A *2187:C2 0.000121198
5 *299:8 *2187:C2 0
6 *340:10 *2187:C2 1.1025e-05
*RES
1 *2842:Z *2187:C2 37.25 
*END

*D_NET *1359 0.000331371
*CONN
*I *2221:B2 I *D AOI21_X1
*I *2843:Z O *D LOGIC0_X1
*CAP
1 *2221:B2 0.000165685
2 *2843:Z 0.000165685
3 *2206:A1 *2221:B2 0
*RES
1 *2843:Z *2221:B2 37.8929 
*END

*D_NET *1360 0.000455775
*CONN
*I *2218:A1 I *D NAND2_X1
*I *2844:Z O *D LOGIC0_X1
*CAP
1 *2218:A1 0.00014234
2 *2844:Z 0.00014234
3 *2173:A *2218:A1 0
4 *2173:B *2218:A1 0
5 *2223:C1 *2218:A1 3.60147e-05
6 *2223:C2 *2218:A1 0
7 *289:10 *2218:A1 6.32263e-05
8 *290:8 *2218:A1 1.50871e-05
9 *340:12 *2218:A1 5.67661e-05
*RES
1 *2844:Z *2218:A1 39.7857 
*END

*D_NET *1361 0.000545163
*CONN
*I *2182:B2 I *D OAI21_X2
*I *2845:Z O *D LOGIC0_X1
*CAP
1 *2182:B2 0.000136017
2 *2845:Z 0.000136017
3 *2177:A *2182:B2 0
4 *2182:B1 *2182:B2 6.97608e-05
5 *293:8 *2182:B2 0.000181136
6 *294:8 *2182:B2 2.22337e-05
*RES
1 *2845:Z *2182:B2 39.5714 
*END

*D_NET *1362 0.000427626
*CONN
*I *2213:A1 I *D NAND2_X1
*I *2846:Z O *D LOGIC0_X1
*CAP
1 *2213:A1 0.000178261
2 *2846:Z 0.000178261
3 *2181:B *2213:A1 6.92212e-05
4 *2217:A *2213:A1 1.88334e-06
5 *2217:B *2213:A1 0
*RES
1 *2846:Z *2213:A1 40.6786 
*END

*D_NET *1363 0.000538353
*CONN
*I *1760:B2 I *D OAI21_X1
*I *2847:Z O *D LOGIC0_X1
*CAP
1 *1760:B2 0.000179483
2 *2847:Z 0.000179483
3 *1760:B2 *1761:A1 9.57492e-07
4 *1758:A *1760:B2 6.74729e-06
5 *1758:B *1760:B2 5.49364e-05
6 *1760:B1 *1760:B2 8.81384e-05
7 *1761:A2 *1760:B2 2.41394e-05
8 *1762:B *1760:B2 0
9 *1856:A *1760:B2 4.4683e-06
*RES
1 *2847:Z *1760:B2 43.9286 
*END

*D_NET *1364 0.000868083
*CONN
*I *1761:A1 I *D NOR3_X1
*I *2848:Z O *D LOGIC0_X1
*CAP
1 *1761:A1 0.000162587
2 *2848:Z 0.000162587
3 *1761:A1 *1725:A 0
4 *1676:A *1761:A1 4.47286e-06
5 *1758:B *1761:A1 0.000171599
6 *1759:A1 *1761:A1 3.57834e-05
7 *1760:A *1761:A1 0.000326723
8 *1760:B1 *1761:A1 8.43215e-07
9 *1760:B2 *1761:A1 9.57492e-07
10 *1761:A3 *1761:A1 2.52965e-06
*RES
1 *2848:Z *1761:A1 47.1429 
*END

*D_NET *1365 0.000610101
*CONN
*I *1780:C2 I *D AOI211_X1
*I *2849:Z O *D LOGIC0_X1
*CAP
1 *1780:C2 0.000116168
2 *2849:Z 0.000116168
3 *1566:B *1780:C2 0
4 *1572:A2 *1780:C2 6.83382e-05
5 *1779:A *1780:C2 2.16072e-07
6 *1779:B *1780:C2 5.62244e-05
7 *1779:C2 *1780:C2 0.000238691
8 *1780:B *1780:C2 3.22858e-06
9 *696:10 *1780:C2 8.43215e-07
10 *697:10 *1780:C2 1.02238e-05
*RES
1 *2849:Z *1780:C2 40.6786 
*END

*D_NET *1366 0.000611205
*CONN
*I *1756:A I *D XOR2_X1
*I *2850:Z O *D LOGIC0_X1
*CAP
1 *1756:A 0.00018088
2 *2850:Z 0.00018088
3 *1569:B *1756:A 3.9554e-05
4 *1570:A *1756:A 0.000160184
5 *1570:B *1756:A 4.87498e-05
6 *1572:B2 *1756:A 0
7 *1757:A2 *1756:A 9.57492e-07
8 *1784:B2 *1756:A 0
*RES
1 *2850:Z *1756:A 45.6072 
*END

*D_NET *1367 0.000773874
*CONN
*I *1782:B2 I *D OAI21_X1
*I *2851:Z O *D LOGIC0_X1
*CAP
1 *1782:B2 0.000107582
2 *2851:Z 0.000107582
3 *1754:A *1782:B2 2.56243e-06
4 *1755:A1 *1782:B2 0.000326745
5 *673:8 *1782:B2 0.000199166
6 *673:19 *1782:B2 3.02372e-05
*RES
1 *2851:Z *1782:B2 40.4643 
*END

*D_NET *1368 0.000527838
*CONN
*I *1787:B2 I *D OAI21_X1
*I *2852:Z O *D LOGIC0_X1
*CAP
1 *1787:B2 0.00011752
2 *2852:Z 0.00011752
3 *1787:B2 *1788:A1 5.11191e-06
4 *1787:B2 *1788:B2 0.000210128
5 *1786:A *1787:B2 6.05428e-06
6 *1787:B1 *1787:B2 2.52965e-06
7 *1788:A2 *1787:B2 6.83269e-05
8 *1789:A1 *1787:B2 6.48216e-07
*RES
1 *2852:Z *1787:B2 37.9643 
*END

*D_NET *1369 0.000618555
*CONN
*I *1788:A1 I *D AOI22_X1
*I *2853:Z O *D LOGIC0_X1
*CAP
1 *1788:A1 9.70019e-05
2 *2853:Z 9.70019e-05
3 *1788:A1 *1739:A 0
4 *1732:A1 *1788:A1 0
5 *1786:A *1788:A1 8.05795e-05
6 *1787:B2 *1788:A1 5.11191e-06
7 *1788:A2 *1788:A1 0.00033886
*RES
1 *2853:Z *1788:A1 38.5714 
*END

*D_NET *1370 0.00060525
*CONN
*I *1788:B2 I *D AOI22_X1
*I *2854:Z O *D LOGIC0_X1
*CAP
1 *1788:B2 9.00767e-05
2 *2854:Z 9.00767e-05
3 *1562:B *1788:B2 0.000185279
4 *1786:A *1788:B2 2.96899e-05
5 *1787:B2 *1788:B2 0.000210128
*RES
1 *2854:Z *1788:B2 37.8929 
*END

*D_NET *1371 0.000746624
*CONN
*I *1790:A1 I *D NOR3_X1
*I *2855:Z O *D LOGIC0_X1
*CAP
1 *1790:A1 0.000149155
2 *2855:Z 0.000149155
3 *1745:B *1790:A1 6.25396e-05
4 *1786:A *1790:A1 2.90592e-05
5 *1786:B2 *1790:A1 9.57492e-07
6 *1788:B1 *1790:A1 0.000154004
7 *1789:A2 *1790:A1 2.00103e-05
8 *1789:A3 *1790:A1 0
9 *1789:A4 *1790:A1 9.27349e-05
10 *1790:A2 *1790:A1 8.26038e-06
11 *1790:A3 *1790:A1 4.31977e-05
12 *704:21 *1790:A1 3.75501e-05
*RES
1 *2855:Z *1790:A1 45.4643 
*END

*D_NET *1372 0.000279132
*CONN
*I *1747:A I *D XNOR2_X1
*I *2856:Z O *D LOGIC0_X1
*CAP
1 *1747:A 0.000125885
2 *2856:Z 0.000125885
3 *1745:A *1747:A 2.73619e-05
4 *1749:B1 *1747:A 0
*RES
1 *2856:Z *1747:A 22.75 
*END

*D_NET *1373 0.000500051
*CONN
*I *1750:A I *D INV_X1
*I *2857:Z O *D LOGIC0_X1
*CAP
1 *1750:A 0.000199772
2 *2857:Z 0.000199772
3 *1741:B *1750:A 0
4 *1742:A *1750:A 3.72904e-06
5 *1751:A1 *1750:A 5.41831e-05
6 *1751:A2 *1750:A 2.96955e-05
7 *2137:B *1750:A 0
8 *660:12 *1750:A 1.28987e-05
*RES
1 *2857:Z *1750:A 43.1429 
*END

*D_NET *1374 0.000316835
*CONN
*I *1737:A I *D XNOR2_X1
*I *2858:Z O *D LOGIC0_X1
*CAP
1 *1737:A 0.000137562
2 *2858:Z 0.000137562
3 *1737:B *1737:A 3.88456e-06
4 *1819:B2 *1737:A 3.52448e-06
5 *2195:B *1737:A 6.44217e-06
6 *654:6 *1737:A 2.01347e-05
7 *656:10 *1737:A 7.72537e-06
*RES
1 *2858:Z *1737:A 25.0357 
*END

*D_NET *1375 0.000635956
*CONN
*I *1739:A I *D INV_X1
*I *2859:Z O *D LOGIC0_X1
*CAP
1 *1739:A 0.000125309
2 *2859:Z 0.000125309
3 *1731:A *1739:A 0
4 *1732:A1 *1739:A 0.00028697
5 *1732:A2 *1739:A 3.60147e-05
6 *1786:A *1739:A 1.76926e-06
7 *1788:A1 *1739:A 0
8 *650:10 *1739:A 6.05851e-05
*RES
1 *2859:Z *1739:A 40.6072 
*END

*D_NET *1376 0.000418333
*CONN
*I *1817:A I *D INV_X1
*I *2860:Z O *D LOGIC0_X1
*CAP
1 *1817:A 0.000150619
2 *2860:Z 0.000150619
3 *1735:B *1817:A 0
4 *1807:A *1817:A 3.09411e-06
5 *1807:B *1817:A 0.000108252
6 *1818:A2 *1817:A 0
7 *2195:B *1817:A 5.74951e-06
8 *726:12 *1817:A 0
*RES
1 *2860:Z *1817:A 39.7857 
*END

*D_NET *1377 0.000572299
*CONN
*I *1815:A I *D INV_X1
*I *2861:Z O *D LOGIC0_X1
*CAP
1 *1815:A 0.000199127
2 *2861:Z 0.000199127
3 *1731:A *1815:A 0
4 *1733:A *1815:A 0
5 *1740:B1 *1815:A 0
6 *1740:C2 *1815:A 0
7 *1795:A1 *1815:A 2.80752e-05
8 *1805:A *1815:A 6.48216e-07
9 *1821:A *1815:A 1.16685e-05
10 *1821:C2 *1815:A 0.000133653
*RES
1 *2861:Z *1815:A 43.4286 
*END

*D_NET *1378 0.000462502
*CONN
*I *1812:A I *D INV_X1
*I *2862:Z O *D LOGIC0_X1
*CAP
1 *1812:A 0.000202554
2 *2862:Z 0.000202554
3 *1797:B *1812:A 2.46104e-05
4 *1798:A *1812:A 4.73284e-06
5 *1798:B *1812:A 1.55581e-05
6 *1810:A4 *1812:A 0
7 *1813:A1 *1812:A 1.24924e-05
8 *716:8 *1812:A 0
*RES
1 *2862:Z *1812:A 43.6429 
*END

*D_NET *1379 0.000411531
*CONN
*I *1800:A I *D XNOR2_X1
*I *2863:Z O *D LOGIC0_X1
*CAP
1 *1800:A 0.000189213
2 *2863:Z 0.000189213
3 *1728:A *1800:A 1.45415e-05
4 *1729:A1 *1800:A 0
5 *1800:B *1800:A 1.85634e-05
6 *1823:A1 *1800:A 0
7 *1823:A2 *1800:A 0
8 *742:12 *1800:A 0
*RES
1 *2863:Z *1800:A 29.8929 
*END

*D_NET *1380 0.000559273
*CONN
*I *1717:A I *D XNOR2_X1
*I *2864:Z O *D LOGIC0_X1
*CAP
1 *1717:A 0.000182271
2 *2864:Z 0.000182271
3 *1716:A1 *1717:A 4.24381e-05
4 *1718:A *1717:A 7.56052e-05
5 *1718:C1 *1717:A 3.01918e-05
6 *1827:A2 *1717:A 0
7 *636:10 *1717:A 4.64955e-05
*RES
1 *2864:Z *1717:A 42.7143 
*END

*D_NET *1381 0.000329188
*CONN
*I *1712:A I *D XNOR2_X1
*I *2865:Z O *D LOGIC0_X1
*CAP
1 *1712:A 0.000162652
2 *2865:Z 0.000162652
3 *1719:A2 *1712:A 3.88456e-06
4 *1722:B1 *1712:A 0
5 *630:10 *1712:A 0
6 *631:12 *1712:A 0
*RES
1 *2865:Z *1712:A 25.9643 
*END

*D_NET *1382 0.000435588
*CONN
*I *1707:A I *D XNOR2_X1
*I *2866:Z O *D LOGIC0_X1
*CAP
1 *1707:A 0.000183863
2 *2866:Z 0.000183863
3 *1705:A *1707:A 2.6197e-05
4 *1705:B *1707:A 9.3409e-06
5 *1707:B *1707:A 1.15283e-05
6 *1720:A *1707:A 1.59719e-05
7 *1720:B *1707:A 1.7326e-06
8 *1728:B *1707:A 3.09143e-06
9 *624:6 *1707:A 0
*RES
1 *2866:Z *1707:A 30.8572 
*END

*D_NET *1383 0.00036682
*CONN
*I *1702:A I *D XOR2_X1
*I *2867:Z O *D LOGIC0_X1
*CAP
1 *1702:A 0.000143753
2 *2867:Z 0.000143753
3 *1701:A1 *1702:A 6.97608e-05
4 *1701:A2 *1702:A 9.55318e-06
5 *1723:B1 *1702:A 0
*RES
1 *2867:Z *1702:A 37.2143 
*END

*D_NET *1384 0.00034348
*CONN
*I *1690:A I *D XNOR2_X1
*I *2868:Z O *D LOGIC0_X1
*CAP
1 *1690:A 0.000107443
2 *2868:Z 0.000107443
3 *1688:A *1690:A 5.75996e-06
4 *1688:B *1690:A 1.04632e-05
5 *607:6 *1690:A 0.000112371
*RES
1 *2868:Z *1690:A 23.6786 
*END

*D_NET *1385 0.00075809
*CONN
*I *1692:A I *D INV_X1
*I *2869:Z O *D LOGIC0_X1
*CAP
1 *1692:A 0.000205211
2 *2869:Z 0.000205211
3 *1680:A *1692:A 6.15405e-06
4 *1685:A1 *1692:A 8.38944e-05
5 *1693:A *1692:A 4.24673e-07
6 *1693:C1 *1692:A 4.45242e-06
7 *1782:A *1692:A 2.83745e-05
8 *603:12 *1692:A 0.000224367
*RES
1 *2869:Z *1692:A 49 
*END

*D_NET *1386 0.000309507
*CONN
*I *1695:A I *D INV_X1
*I *2870:Z O *D LOGIC0_X1
*CAP
1 *1695:A 0.000120268
2 *2870:Z 0.000120268
3 *1566:B *1695:A 6.89712e-05
4 *1681:B2 *1695:A 0
5 *1780:A *1695:A 0
6 *1781:A2 *1695:A 0
*RES
1 *2870:Z *1695:A 34.5 
*END

*D_NET *1387 0.000327713
*CONN
*I *1725:A I *D INV_X1
*I *2871:Z O *D LOGIC0_X1
*CAP
1 *1725:A 0.000163856
2 *2871:Z 0.000163856
3 *1759:A1 *1725:A 0
4 *1760:A *1725:A 0
5 *1761:A1 *1725:A 0
*RES
1 *2871:Z *1725:A 37.2143 
*END

*D_NET *1388 0.000309129
*CONN
*I *1647:A I *D XNOR2_X1
*I *2872:Z O *D LOGIC0_X1
*CAP
1 *1647:A 0.000146762
2 *2872:Z 0.000146762
3 *1645:A *1647:A 5.11118e-06
4 *1647:B *1647:A 8.26038e-06
5 *1676:B *1647:A 0
6 *1724:A *1647:A 0
7 *564:10 *1647:A 2.23415e-06
8 *748:10 *1647:A 0
*RES
1 *2872:Z *1647:A 24.8571 
*END

*D_NET *1389 0.000456263
*CONN
*I *1642:A I *D XNOR2_X1
*I *2873:Z O *D LOGIC0_X1
*CAP
1 *1642:A 0.000129945
2 *2873:Z 0.000129945
3 *1639:A *1642:A 3.69646e-06
4 *1640:A *1642:A 5.0798e-05
5 *1651:B2 *1642:A 0
6 *561:10 *1642:A 0.000131428
7 *577:10 *1642:A 1.045e-05
*RES
1 *2873:Z *1642:A 37.6072 
*END

*D_NET *1390 7.67018e-05
*CONN
*I *1654:A1 I *D NAND2_X1
*I *2874:Z O *D LOGIC0_X1
*CAP
1 *1654:A1 3.59489e-05
2 *2874:Z 3.59489e-05
3 *1655:A1 *1654:A1 4.80399e-06
*RES
1 *2874:Z *1654:A1 24.3214 
*END

*D_NET *1391 0.000553156
*CONN
*I *1652:A I *D INV_X1
*I *2875:Z O *D LOGIC0_X1
*CAP
1 *1652:A 0.000127286
2 *2875:Z 0.000127286
3 *1632:B *1652:A 0
4 *1633:A1 *1652:A 0.000289341
5 *1633:A2 *1652:A 9.24246e-06
6 *1640:B *1652:A 0
*RES
1 *2875:Z *1652:A 39.25 
*END

*D_NET *1392 0.000367233
*CONN
*I *1667:A1 I *D AND2_X1
*I *2876:Z O *D LOGIC0_X1
*CAP
1 *1667:A1 0.000157214
2 *2876:Z 0.000157214
3 *1627:A *1667:A1 1.7678e-05
4 *1667:A2 *1667:A1 1.32323e-05
5 *1668:B2 *1667:A1 0
6 *547:27 *1667:A1 2.18943e-05
*RES
1 *2876:Z *1667:A1 37.7143 
*END

*D_NET *1393 0.000642305
*CONN
*I *1666:A I *D INV_X1
*I *2877:Z O *D LOGIC0_X1
*CAP
1 *1666:A 0.000137421
2 *2877:Z 0.000137421
3 *1620:B *1666:A 1.71681e-05
4 *1624:B *1666:A 2.62229e-05
5 *1668:B2 *1666:A 5.87096e-05
6 *1669:A2 *1666:A 0.000131821
7 *1669:B2 *1666:A 9.36271e-05
8 *539:10 *1666:A 3.99139e-05
*RES
1 *2877:Z *1666:A 43.3929 
*END

*D_NET *1394 0.000367202
*CONN
*I *1661:A1 I *D AND2_X1
*I *2878:Z O *D LOGIC0_X1
*CAP
1 *1661:A1 8.41421e-05
2 *2878:Z 8.41421e-05
3 *1662:B2 *1661:A1 0.000198918
4 *1766:A1 *1661:A1 0
5 *1772:A *1661:A1 0
*RES
1 *2878:Z *1661:A1 33.1429 
*END

*D_NET *1395 0.000649656
*CONN
*I *1664:A1 I *D AOI22_X1
*I *2879:Z O *D LOGIC0_X1
*CAP
1 *1664:A1 9.75469e-05
2 *2879:Z 9.75469e-05
3 *1617:B *1664:A1 0.000210531
4 *1664:B1 *1664:A1 0.000107413
5 *1671:A2 *1664:A1 6.89712e-05
6 *1671:A3 *1664:A1 6.63733e-05
7 *542:12 *1664:A1 1.27404e-06
8 *751:8 *1664:A1 0
*RES
1 *2879:Z *1664:A1 39.25 
*END

*D_NET *1396 0.000309348
*CONN
*I *1471:A I *D XNOR2_X1
*I *2880:Z O *D LOGIC0_X1
*CAP
1 *1471:A 0.000152916
2 *2880:Z 0.000152916
3 *1473:A2 *1471:A 0
4 *1475:A2 *1471:A 0
5 *1587:A1 *1471:A 0
6 *2174:A *1471:A 3.51536e-06
7 *386:10 *1471:A 0
*RES
1 *2880:Z *1471:A 25.0357 
*END

*D_NET *1397 0.000354182
*CONN
*I *1466:A I *D XNOR2_X1
*I *2881:Z O *D LOGIC0_X1
*CAP
1 *1466:A 0.00016413
2 *2881:Z 0.00016413
3 *1465:A1 *1466:A 1.57087e-05
4 *385:10 *1466:A 1.02133e-05
*RES
1 *2881:Z *1466:A 27.6071 
*END

*D_NET *1398 0.000157614
*CONN
*I *1460:A I *D XNOR2_X1
*I *2882:Z O *D LOGIC0_X1
*CAP
1 *1460:A 6.98819e-05
2 *2882:Z 6.98819e-05
3 *1459:A2 *1460:A 0
4 *1460:B *1460:A 1.78501e-05
*RES
1 *2882:Z *1460:A 17.3571 
*END

*D_NET *1399 0.00032345
*CONN
*I *1454:A I *D XNOR2_X1
*I *2883:Z O *D LOGIC0_X1
*CAP
1 *1454:A 0.000148864
2 *2883:Z 0.000148864
3 *1430:B *1454:A 1.31814e-05
4 *1431:A1 *1454:A 1.25407e-05
5 *371:12 *1454:A 0
*RES
1 *2883:Z *1454:A 35.7143 
*END

*D_NET *1400 0.000609863
*CONN
*I *1441:A I *D XOR2_X1
*I *2884:Z O *D LOGIC0_X1
*CAP
1 *1441:A 0.000135364
2 *2884:Z 0.000135364
3 *1439:B *1441:A 0.000108745
4 *107:8 *1441:A 4.93896e-05
5 *358:8 *1441:A 9.57501e-05
6 *1059:14 *1441:A 8.52505e-05
*RES
1 *2884:Z *1441:A 41.9643 
*END

*D_NET *1401 0.000319913
*CONN
*I *1444:A I *D INV_X1
*I *2885:Z O *D LOGIC0_X1
*CAP
1 *1444:A 0.000143163
2 *2885:Z 0.000143163
3 *1435:A *1444:A 0
4 *1438:A *1444:A 1.03226e-06
5 *354:8 *1444:A 3.25548e-05
*RES
1 *2885:Z *1444:A 36.3929 
*END

*D_NET *1402 0.000568578
*CONN
*I *1432:A I *D XOR2_X1
*I *2886:Z O *D LOGIC0_X1
*CAP
1 *1432:A 0.000121127
2 *2886:Z 0.000121127
3 *1430:A *1432:A 0.000147729
4 *1437:A1 *1432:A 0
5 *1446:B *1432:A 3.02001e-05
6 *351:8 *1432:A 9.22054e-05
7 *364:16 *1432:A 5.61902e-05
*RES
1 *2886:Z *1432:A 40.6072 
*END

*D_NET *1403 0.000264917
*CONN
*I *1449:A I *D INV_X1
*I *2887:Z O *D LOGIC0_X1
*CAP
1 *1449:A 0.000132458
2 *2887:Z 0.000132458
3 *1480:A *1449:A 0
*RES
1 *2887:Z *1449:A 35.1786 
*END

*D_NET *1404 0.000590205
*CONN
*I *2202:B2 I *D AOI22_X1
*I *2888:Z O *D LOGIC0_X1
*CAP
1 *2202:B2 0.000141711
2 *2888:Z 0.000141711
3 *1489:B *2202:B2 4.08953e-05
4 *2199:A *2202:B2 1.44603e-05
5 *2199:B *2202:B2 0
6 *2200:A *2202:B2 1.06141e-05
7 *2202:B1 *2202:B2 8.22158e-05
8 *315:8 *2202:B2 0.000158598
9 *1240:27 *2202:B2 0
*RES
1 *2888:Z *2202:B2 41.1429 
*END

*D_NET *1405 0.000408735
*CONN
*I *2197:A I *D XNOR2_X1
*I *2889:Z O *D LOGIC0_X1
*CAP
1 *2197:A 0.000160992
2 *2889:Z 0.000160992
3 *2194:A *2197:A 1.60038e-06
4 *2197:B *2197:A 1.30565e-05
5 *2201:A1 *2197:A 5.01029e-05
6 *2204:A *2197:A 0
7 *311:8 *2197:A 4.97191e-06
8 *313:10 *2197:A 1.70206e-05
*RES
1 *2889:Z *2197:A 27.9286 
*END

*D_NET *1406 0.000429603
*CONN
*I *2207:A I *D INV_X1
*I *2890:Z O *D LOGIC0_X1
*CAP
1 *2207:A 0.000208071
2 *2890:Z 0.000208071
3 *1590:A2 *2207:A 1.34605e-05
*RES
1 *2890:Z *2207:A 41.1429 
*END

*D_NET *1407 0.0004353
*CONN
*I *2210:A I *D INV_X1
*I *2891:Z O *D LOGIC0_X1
*CAP
1 *2210:A 0.000143297
2 *2891:Z 0.000143297
3 *2189:A *2210:A 6.56007e-06
4 *2190:A *2210:A 1.16067e-05
5 *2211:B2 *2210:A 0
6 *2211:C1 *2210:A 4.87933e-06
7 *2211:C2 *2210:A 1.70588e-05
8 *2212:B1 *2210:A 8.50171e-06
9 *2212:B2 *2210:A 5.45267e-05
10 *303:18 *2210:A 4.76429e-07
11 *340:12 *2210:A 4.50965e-05
*RES
1 *2891:Z *2210:A 40.4643 
*END

*D_NET *1408 0.000374525
*CONN
*I *2219:A I *D INV_X1
*I *2892:Z O *D LOGIC0_X1
*CAP
1 *2219:A 0.000166042
2 *2892:Z 0.000166042
3 *2219:A *2216:A 0
4 *2204:A *2219:A 0
5 *313:10 *2219:A 4.24402e-05
*RES
1 *2892:Z *2219:A 37.8929 
*END

*D_NET *1409 0.000491475
*CONN
*I *2222:A I *D INV_X1
*I *2893:Z O *D LOGIC0_X1
*CAP
1 *2222:A 0.000145216
2 *2893:Z 0.000145216
3 *2187:A *2222:A 0
4 *2223:B1 *2222:A 9.44209e-05
5 *2223:C2 *2222:A 0.000106622
6 *340:12 *2222:A 0
*RES
1 *2893:Z *2222:A 38.6429 
*END

*D_NET *1410 0.000476938
*CONN
*I *2214:A1 I *D AND2_X1
*I *2894:Z O *D LOGIC0_X1
*CAP
1 *2214:A1 0.000135686
2 *2894:Z 0.000135686
3 *2177:B *2214:A1 2.39679e-06
4 *2178:A1 *2214:A1 0
5 *2215:B1 *2214:A1 0.000198376
6 *2217:B *2214:A1 0
7 *292:14 *2214:A1 4.79358e-06
*RES
1 *2894:Z *2214:A1 37.9643 
*END

*D_NET *1411 0.000488029
*CONN
*I *2216:A I *D INV_X1
*I *2895:Z O *D LOGIC0_X1
*CAP
1 *2216:A 0.000176229
2 *2895:Z 0.000176229
3 *2179:B *2216:A 9.62051e-07
4 *2180:A *2216:A 3.09411e-06
5 *2184:B *2216:A 0
6 *2219:A *2216:A 0
7 *2220:A2 *2216:A 8.22158e-05
8 *2221:A *2216:A 2.08098e-06
9 *300:12 *2216:A 0
10 *301:12 *2216:A 4.72173e-05
*RES
1 *2895:Z *2216:A 41.3572 
*END

*D_NET *1412 0.000501553
*CONN
*I *1571:A2 I *D AND2_X1
*I *2896:Z O *D LOGIC1_X1
*CAP
1 *1571:A2 0.000146611
2 *2896:Z 0.000146611
3 *1570:A *1571:A2 2.08098e-06
4 *1570:B *1571:A2 6.76378e-05
5 *1573:B1 *1571:A2 9.2096e-05
6 *2103:A1 *1571:A2 3.52448e-06
7 *492:8 *1571:A2 0
8 *1327:14 *1571:A2 4.29923e-05
*RES
1 *2896:Z *1571:A2 38.5 
*END

*D_NET *1413 0.000712613
*CONN
*I *1770:A3 I *D OR3_X1
*I *2897:Z O *D LOGIC1_X1
*CAP
1 *1770:A3 0
2 *2897:Z 0.000233987
3 *1413:14 0.000233987
4 *1413:14 *1771:C2 0
5 *1624:A *1413:14 3.52448e-06
6 *1765:A *1413:14 1.26998e-05
7 *1765:B *1413:14 3.36492e-06
8 *1769:B *1413:14 0
9 *1770:A1 *1413:14 8.43215e-07
10 *1771:A *1413:14 9.44188e-05
11 *1771:B1 *1413:14 4.48425e-06
12 *1771:B2 *1413:14 1.72191e-05
13 *1771:C1 *1413:14 9.71263e-05
14 *684:8 *1413:14 0
15 *1229:36 *1413:14 1.0958e-05
*RES
1 *2897:Z *1413:14 46.1429 
2 *1413:14 *1770:A3 5 
*END

*D_NET *1414 0.000376624
*CONN
*I *1771:C2 I *D AOI221_X1
*I *2898:Z O *D LOGIC1_X1
*CAP
1 *1771:C2 0.000142515
2 *2898:Z 0.000142515
3 *1765:A *1771:C2 4.82788e-05
4 *1768:A *1771:C2 0
5 *1769:B *1771:C2 2.16603e-05
6 *1771:A *1771:C2 7.72537e-06
7 *1771:B1 *1771:C2 1.39292e-05
8 *1413:14 *1771:C2 0
*RES
1 *2898:Z *1771:C2 38.5714 
*END

*D_NET *1415 0.000505064
*CONN
*I *1607:A I *D INV_X1
*I *2899:Z O *D LOGIC1_X1
*CAP
1 *1607:A 0.000181862
2 *2899:Z 0.000181862
3 *1607:A *2237:CK 1.86417e-05
4 *1598:A *1607:A 0
5 *1598:B *1607:A 3.06855e-05
6 *1602:A *1607:A 0
7 *1602:B *1607:A 2.36739e-05
8 *1608:A2 *1607:A 0
9 *517:8 *1607:A 0
10 *521:12 *1607:A 6.83382e-05
*RES
1 *2899:Z *1607:A 44 
*END

*D_NET *1416 0.000583561
*CONN
*I *1606:A I *D INV_X1
*I *2900:Z O *D LOGIC1_X1
*CAP
1 *1606:A 0.000138045
2 *2900:Z 0.000138045
3 *1596:B *1606:A 2.24327e-06
4 *1598:B *1606:A 2.75346e-06
5 *1603:A1 *1606:A 3.38181e-05
6 *1603:B2 *1606:A 5.7133e-05
7 *1604:A2 *1606:A 5.5481e-05
8 *1608:B1 *1606:A 9.38792e-05
9 *1609:A2 *1606:A 0
10 *2094:A *1606:A 2.08416e-06
11 *517:8 *1606:A 1.61002e-06
12 *1269:12 *1606:A 5.84698e-05
*RES
1 *2900:Z *1606:A 41.8929 
*END

*D_NET *1417 0.000629812
*CONN
*I *1594:B2 I *D OAI21_X1
*I *2901:Z O *D LOGIC1_X1
*CAP
1 *1594:B2 0.000142645
2 *2901:Z 0.000142645
3 *1593:B2 *1594:B2 0
4 *1594:A *1594:B2 2.08416e-06
5 *1836:A1 *1594:B2 2.6099e-05
6 *1925:C1 *1594:B2 2.86077e-05
7 *511:159 *1594:B2 2.09871e-05
8 *511:167 *1594:B2 3.39527e-06
9 *755:10 *1594:B2 0.000263349
*RES
1 *2901:Z *1594:B2 41.8929 
*END

*D_NET *1418 0.00612184
*CONN
*I *2237:CK I *D DFFR_X1
*I *2246:CK I *D DFFR_X1
*I *2247:CK I *D DFFR_X1
*I *2906:A I *D BUF_X4
*I *2248:CK I *D DFFR_X1
*I *2251:CK I *D DFFR_X1
*I *2250:CK I *D DFFR_X1
*I *2249:CK I *D DFFR_X1
*I *2902:Z O *D BUF_X4
*CAP
1 *2237:CK 0.000437256
2 *2246:CK 7.89956e-05
3 *2247:CK 0
4 *2906:A 0
5 *2248:CK 0
6 *2251:CK 9.92534e-05
7 *2250:CK 0.000169937
8 *2249:CK 2.55645e-05
9 *2902:Z 0
10 *1418:105 0.00046327
11 *1418:90 0.000406773
12 *1418:81 0.000472834
13 *1418:43 0.000600147
14 *1418:22 0.00040499
15 *1418:20 0.000954081
16 *1418:16 0.000307669
17 *1418:10 0.000147796
18 *1418:4 0.000254896
19 *1522:A *1418:43 0
20 *1526:A *1418:43 0
21 *1528:B *1418:20 7.07065e-05
22 *1532:A2 *1418:20 5.11574e-06
23 *1532:A2 *1418:22 3.13512e-06
24 *1532:A2 *1418:43 5.20238e-07
25 *1533:A2 *1418:20 1.17619e-05
26 *1533:A2 *1418:43 6.97561e-06
27 *1543:A *1418:81 6.99122e-05
28 *1547:B *1418:90 1.34578e-05
29 *1582:A *1418:20 8.03538e-05
30 *1582:A *1418:43 3.70386e-05
31 *1582:B *1418:20 4.32144e-07
32 *1599:B *2237:CK 0
33 *1602:A *2237:CK 0
34 *1607:A *2237:CK 1.86417e-05
35 *1926:A *2237:CK 0
36 *1980:A *1418:10 0
37 *1980:A *1418:81 0
38 *1985:A *1418:90 0
39 *1985:S *1418:90 9.57492e-07
40 *1988:S *2237:CK 1.40615e-05
41 *1992:A *2237:CK 9.31049e-06
42 *2005:A2 *2237:CK 0
43 *2006:A *2237:CK 0
44 *2062:A *1418:43 6.3924e-06
45 *2063:A *2251:CK 4.29819e-05
46 *2063:B2 *1418:43 0
47 *2119:A *2250:CK 0
48 *2119:A *2251:CK 0
49 *2121:A *1418:22 0.000158016
50 *2246:D *2246:CK 3.69648e-06
51 *2246:RN *1418:90 0
52 *2247:D *1418:81 3.07768e-05
53 *2247:RN *1418:81 0
54 *2249:D *2249:CK 1.1025e-05
55 *2250:D *2250:CK 0
56 *2251:D *2251:CK 5.39659e-06
57 *61:65 *1418:81 0
58 *61:65 *1418:90 0
59 *61:69 *1418:10 0
60 *61:69 *1418:16 4.31693e-05
61 *61:69 *1418:20 7.62134e-05
62 *61:69 *1418:81 0
63 *61:79 *1418:20 0
64 *61:79 *1418:22 5.86754e-06
65 *95:22 *1418:90 0
66 *147:8 *1418:10 1.53357e-05
67 *147:8 *1418:16 2.57883e-05
68 *441:10 *1418:43 0
69 *524:116 *2246:CK 8.26038e-06
70 *530:29 *2246:CK 4.97191e-06
71 *530:31 *2246:CK 2.75346e-06
72 *530:155 *2246:CK 0.000209903
73 *530:155 *1418:105 0.000102817
74 *766:109 *1418:105 5.56165e-05
75 *1245:8 *1418:90 2.26926e-05
76 *1246:12 *1418:81 1.29218e-05
77 *1248:27 *1418:22 0.0001114
78 *1249:20 *1418:43 0
79 *1269:20 *2237:CK 0
*RES
1 *2902:Z *1418:4 5 
2 *1418:4 *1418:10 14.0357 
3 *1418:10 *1418:16 12.8929 
4 *1418:16 *1418:20 34.25 
5 *1418:20 *1418:22 50.4643 
6 *1418:22 *2249:CK 12.75 
7 *1418:20 *1418:43 42.8929 
8 *1418:43 *2250:CK 28.5714 
9 *1418:43 *2251:CK 21.7857 
10 *1418:16 *2248:CK 5 
11 *1418:10 *2906:A 10 
12 *1418:4 *1418:81 30.8572 
13 *1418:81 *2247:CK 5 
14 *1418:81 *1418:90 35.75 
15 *1418:90 *2246:CK 22.5357 
16 *1418:90 *1418:105 10.6786 
17 *1418:105 *2237:CK 48.25 
*END

*D_NET *1419 0.00596637
*CONN
*I *2256:CK I *D DFFR_X1
*I *2255:CK I *D DFFR_X1
*I *2254:CK I *D DFFR_X1
*I *2253:CK I *D DFFR_X1
*I *2252:CK I *D DFFR_X1
*I *2244:CK I *D DFFR_X1
*I *2245:CK I *D DFFR_X1
*I *2907:A I *D BUF_X4
*I *2903:Z O *D BUF_X4
*CAP
1 *2256:CK 0.000134507
2 *2255:CK 0
3 *2254:CK 6.62896e-05
4 *2253:CK 0.000274196
5 *2252:CK 0.000196074
6 *2244:CK 7.06173e-05
7 *2245:CK 5.08942e-05
8 *2907:A 0
9 *2903:Z 0
10 *1419:66 0.000620211
11 *1419:60 0.000279725
12 *1419:58 0.00025916
13 *1419:45 0.000357482
14 *1419:23 0.000450273
15 *1419:10 0.000437341
16 *1419:4 0.000145333
17 *1535:A1 *2253:CK 0
18 *1541:B *1419:58 3.62357e-05
19 *1541:B *1419:66 0
20 *1545:A2 *1419:58 1.41532e-05
21 *1553:A *1419:23 5.50748e-05
22 *1554:A1 *1419:23 0
23 *1576:A2 *1419:23 6.15137e-06
24 *1577:A *1419:23 2.36111e-06
25 *1577:B2 *1419:23 1.19839e-05
26 *1848:A *1419:45 3.19243e-06
27 *1934:A *2252:CK 0
28 *2039:B2 *2252:CK 0.000109607
29 *2039:B2 *1419:58 0.000192716
30 *2040:A *2256:CK 0
31 *2040:B1 *2256:CK 4.48425e-06
32 *2040:B1 *1419:58 3.13512e-06
33 *2040:B2 *1419:58 0.000143648
34 *2041:A1 *2253:CK 2.7327e-05
35 *2046:A *2254:CK 0.000106874
36 *2046:A *1419:66 3.02351e-05
37 *2046:B2 *2254:CK 0
38 *2046:B2 *1419:66 0
39 *2047:A2 *1419:66 6.92191e-05
40 *2051:A *2253:CK 0
41 *2058:A *2252:CK 7.22054e-06
42 *2092:A2 *1419:23 7.72537e-06
43 *2096:A *2244:CK 9.90224e-06
44 *2096:A *2245:CK 9.64396e-05
45 *2101:B2 *2244:CK 8.13411e-05
46 *2245:D *2245:CK 3.07768e-05
47 *2254:D *2254:CK 0.000143774
48 *2255:D *2256:CK 2.57414e-05
49 *2255:D *1419:58 6.86795e-05
50 *61:165 *1419:66 0
51 *61:167 *1419:66 0
52 *61:179 *2253:CK 5.71759e-05
53 *95:73 *2252:CK 9.57492e-07
54 *95:81 *2252:CK 4.79202e-06
55 *95:83 *1419:66 0
56 *460:10 *2252:CK 0
57 *472:14 *1419:23 0.000102776
58 *494:18 *1419:23 0
59 *503:8 *2254:CK 1.80424e-05
60 *503:8 *1419:66 1.46622e-05
61 *524:18 *2253:CK 0
62 *524:210 *2253:CK 0
63 *524:216 *1419:66 0.000301055
64 *524:222 *1419:58 1.39755e-05
65 *524:248 *2256:CK 0.00015598
66 *524:248 *1419:66 0
67 *524:266 *2244:CK 0.000259327
68 *524:266 *2245:CK 0.000277099
69 *530:221 *1419:58 0
70 *766:10 *2252:CK 2.39721e-05
71 *766:10 *1419:10 2.01083e-05
72 *766:10 *1419:45 2.75744e-05
73 *766:10 *1419:58 3.49085e-06
74 *766:103 *1419:10 1.29107e-05
75 *766:103 *1419:23 0
76 *1131:14 *1419:10 9.25123e-06
77 *1131:14 *1419:23 1.27666e-06
78 *1244:6 *1419:23 3.02925e-05
79 *1244:16 *1419:23 1.54649e-06
*RES
1 *2903:Z *1419:4 5 
2 *1419:4 *1419:10 12.7857 
3 *1419:10 *2907:A 5 
4 *1419:10 *1419:23 43.1072 
5 *1419:23 *2245:CK 24.5 
6 *1419:23 *2244:CK 23.8214 
7 *1419:4 *1419:45 9.25 
8 *1419:45 *2252:CK 32.4286 
9 *1419:45 *1419:58 22.6429 
10 *1419:58 *1419:60 5 
11 *1419:60 *1419:66 41.6072 
12 *1419:66 *2253:CK 40.25 
13 *1419:66 *2254:CK 21.7857 
14 *1419:60 *2255:CK 5 
15 *1419:58 *2256:CK 28.0714 
*END

*D_NET *1420 0.00581747
*CONN
*I *2226:CK I *D DFFR_X1
*I *2230:CK I *D DFFR_X1
*I *2229:CK I *D DFFR_X1
*I *2225:CK I *D DFFR_X1
*I *2232:CK I *D DFFR_X1
*I *2231:CK I *D DFFR_X1
*I *2233:CK I *D DFFR_X1
*I *2239:CK I *D DFFS_X1
*I *2257:CK I *D DFFR_X1
*I *2238:CK I *D DFFR_X1
*I *2240:CK I *D DFFR_X1
*I *2904:Z O *D BUF_X4
*CAP
1 *2226:CK 4.28457e-05
2 *2230:CK 3.95435e-05
3 *2229:CK 0.000209837
4 *2225:CK 0.000130292
5 *2232:CK 0.000181278
6 *2231:CK 0
7 *2233:CK 0
8 *2239:CK 0
9 *2257:CK 0
10 *2238:CK 0.000120614
11 *2240:CK 3.64488e-05
12 *2904:Z 8.63971e-06
13 *1420:102 0.000349332
14 *1420:87 0.000362174
15 *1420:83 0.000490563
16 *1420:69 0.000316128
17 *1420:62 0.00035212
18 *1420:49 0.00023733
19 *1420:22 0.000250699
20 *1420:20 0.000276219
21 *1420:14 0.000530117
22 *1420:6 0.000651901
23 busy *1420:62 1.02238e-05
24 tx_done *2238:CK 0
25 *1837:A2 *1420:83 4.21607e-06
26 *1837:B1 *1420:83 1.67775e-05
27 *1838:A1 *1420:83 2.02052e-05
28 *1839:B1 *1420:83 1.80767e-06
29 *1841:B1 *1420:6 0
30 *1841:B1 *1420:83 0
31 *1845:A1 *1420:14 1.76415e-05
32 *1845:A3 *1420:14 4.38669e-05
33 *1880:A *1420:62 0
34 *1881:A *1420:62 8.06372e-06
35 *1881:S *1420:62 9.79823e-05
36 *1888:A1 *2229:CK 7.76244e-05
37 *1888:B2 *2226:CK 8.22158e-05
38 *1888:B2 *1420:87 2.12298e-05
39 *1900:B2 *2229:CK 0
40 *1900:B2 *2230:CK 2.16072e-07
41 *1901:A *2229:CK 2.52965e-06
42 *1901:B1 *2229:CK 6.91187e-06
43 *1904:A *2230:CK 0
44 *1904:A *1420:102 0
45 *1922:B1 *1420:14 2.3767e-06
46 *2130:B1 *1420:14 3.87635e-05
47 *2132:A2 *1420:62 0
48 *2155:A *2226:CK 1.15252e-05
49 *2155:A *1420:87 3.02351e-05
50 *2157:A *2240:CK 4.47286e-06
51 *2158:A *2232:CK 3.38451e-05
52 *2158:A *1420:69 8.30282e-06
53 *2168:A *2238:CK 9.4435e-05
54 *2171:A2 *1420:14 1.78436e-06
55 *2225:D *2225:CK 1.15841e-05
56 *2229:D *2229:CK 2.23415e-06
57 *2230:D *2229:CK 1.62708e-06
58 *2230:RN *2229:CK 3.37965e-05
59 *2232:D *2232:CK 1.15841e-05
60 *2233:D *1420:62 7.9283e-05
61 *2233:RN *1420:62 4.77184e-06
62 *2239:D *1420:14 6.67352e-06
63 *2239:D *1420:20 4.17387e-06
64 *2239:D *1420:62 0
65 *2239:SN *1420:49 2.82896e-05
66 *2239:SN *1420:62 2.75346e-06
67 *2240:D *2238:CK 0
68 *2257:D *1420:20 5.52692e-06
69 *2751:A *1420:83 0
70 *97:8 *2226:CK 0
71 *97:8 *1420:83 0
72 *98:10 *2225:CK 8.72098e-07
73 *98:10 *1420:87 8.89283e-06
74 *98:10 *1420:102 7.72537e-06
75 *98:33 *2226:CK 8.22158e-05
76 *204:16 *2226:CK 0
77 *204:16 *1420:83 0
78 *204:18 *1420:87 9.81792e-06
79 *204:24 *2225:CK 4.09851e-05
80 *204:24 *1420:87 7.38328e-06
81 *204:93 *2230:CK 0
82 *204:108 *2229:CK 0
83 *520:62 *1420:14 3.91488e-05
84 *520:73 *1420:14 5.96276e-05
85 *763:12 *1420:102 0
86 *763:16 *2225:CK 1.56073e-06
87 *1102:89 *1420:14 2.01229e-05
88 *1258:86 *2229:CK 3.09682e-06
89 *1258:92 *2229:CK 2.75118e-05
90 *1258:92 *1420:102 0
91 *1258:94 *2225:CK 0
92 *1258:117 *1420:20 5.42579e-06
93 *1258:117 *1420:49 4.79658e-06
94 *1258:117 *1420:62 2.81092e-05
95 *1258:119 *1420:20 1.88444e-05
96 *1258:119 *1420:22 7.66449e-06
97 *1258:121 *2240:CK 1.59582e-06
98 *1258:121 *1420:22 1.24565e-05
99 *1258:180 *2225:CK 1.39834e-05
100 *1264:8 *2229:CK 0
101 *1271:10 *1420:14 0
102 *1271:10 *1420:20 0
*RES
1 *2904:Z *1420:6 5.75 
2 *1420:6 *1420:14 49 
3 *1420:14 *1420:20 23.9286 
4 *1420:20 *1420:22 10.25 
5 *1420:22 *2240:CK 8.75 
6 *1420:22 *2238:CK 30.8571 
7 *1420:20 *2257:CK 5 
8 *1420:14 *1420:49 7.75 
9 *1420:49 *2239:CK 5 
10 *1420:49 *1420:62 36.9286 
11 *1420:62 *2233:CK 5 
12 *1420:62 *1420:69 13.75 
13 *1420:69 *2231:CK 5 
14 *1420:69 *2232:CK 25.25 
15 *1420:6 *1420:83 31.25 
16 *1420:83 *1420:87 21.5357 
17 *1420:87 *2225:CK 24.9643 
18 *1420:87 *1420:102 14.75 
19 *1420:102 *2229:CK 41.3214 
20 *1420:102 *2230:CK 8.75 
21 *1420:83 *2226:CK 22.5714 
*END

*D_NET *1421 0.00545605
*CONN
*I *2236:CK I *D DFFR_X1
*I *2242:CK I *D DFFR_X1
*I *2243:CK I *D DFFR_X1
*I *2241:CK I *D DFFR_X1
*I *2908:A I *D INV_X2
*I *2228:CK I *D DFFR_X1
*I *2235:CK I *D DFFR_X1
*I *2234:CK I *D DFFR_X1
*I *2227:CK I *D DFFR_X1
*I *2905:Z O *D BUF_X4
*CAP
1 *2236:CK 0.000119536
2 *2242:CK 6.66882e-05
3 *2243:CK 0.000202145
4 *2241:CK 0.000141016
5 *2908:A 0
6 *2228:CK 0
7 *2235:CK 0.000218409
8 *2234:CK 0
9 *2227:CK 0
10 *2905:Z 0
11 *1421:84 0.000446317
12 *1421:71 0.000394653
13 *1421:69 0.000419184
14 *1421:35 0.000328394
15 *1421:31 0.000300625
16 *1421:16 0.000199353
17 *1421:14 0.000494201
18 *1421:12 0.000494201
19 *1421:10 4.12085e-05
20 *1421:6 0.00025599
21 *1593:A *1421:69 5.96136e-06
22 *1593:B2 *1421:69 0
23 *1614:A *1421:14 0
24 *1615:A *1421:14 0
25 *1616:A1 *1421:14 0
26 *1616:A2 *1421:14 0
27 *1767:B2 *2235:CK 0
28 *1769:A *2235:CK 8.93279e-05
29 *1770:A2 *2235:CK 5.74951e-06
30 *1834:A *1421:14 5.40507e-05
31 *1835:C2 *1421:14 0
32 *1837:A1 *1421:14 7.19036e-06
33 *1844:B2 *1421:69 2.06764e-05
34 *1871:A *2243:CK 4.8503e-05
35 *1871:B1 *2243:CK 0
36 *1873:A2 *2243:CK 0
37 *1874:A *1421:71 0
38 *1875:A *2236:CK 0
39 *1875:B1 *2236:CK 0
40 *1875:B1 *1421:71 0
41 *1895:B1 *1421:31 0
42 *1898:B2 *1421:31 0
43 *1912:A *2235:CK 0
44 *1913:B2 *2235:CK 0
45 *1913:B2 *1421:35 0
46 *1923:A1 *1421:14 2.52965e-06
47 *1923:A2 *1421:10 6.50033e-06
48 *1923:A2 *1421:14 6.38784e-06
49 *1924:A *1421:14 0
50 *1924:B1 *1421:14 1.40196e-06
51 *2107:A1 *1421:84 2.14732e-06
52 *2107:A2 *1421:69 7.5258e-05
53 *2109:A *1421:69 1.30865e-05
54 *2110:B1 *1421:84 1.50873e-06
55 *2110:B2 *1421:84 2.72417e-06
56 *2153:A *1421:31 0
57 *2154:A *1421:31 4.62635e-06
58 *2172:A *1421:10 8.75903e-06
59 *2172:A *1421:69 5.04693e-06
60 *2227:D *1421:14 4.32144e-07
61 *2227:D *1421:31 3.09411e-06
62 *2228:D *1421:31 2.52965e-06
63 *2228:D *1421:35 2.96955e-05
64 *2235:D *2235:CK 3.65322e-06
65 *2241:D *2241:CK 2.52965e-06
66 *2242:D *2242:CK 6.44574e-06
67 *2748:A *1421:14 5.11574e-06
68 *50:14 *2242:CK 2.9325e-05
69 *50:14 *2243:CK 5.71471e-05
70 *53:27 *1421:84 0.000125393
71 *60:18 *1421:14 0
72 *60:51 *1421:14 0
73 *60:51 *1421:31 4.15825e-06
74 *61:14 *2235:CK 0
75 *61:28 *2236:CK 0
76 *61:28 *2241:CK 0
77 *61:28 *1421:71 0
78 *61:30 *2241:CK 0
79 *95:151 *1421:69 7.78682e-06
80 *95:199 *1421:69 6.41814e-05
81 *95:230 *2241:CK 0
82 *95:240 *2241:CK 0
83 *98:74 *1421:31 3.96892e-05
84 *204:12 *1421:14 5.52692e-06
85 *287:48 *1421:14 3.80155e-06
86 *287:65 *1421:10 1.74688e-05
87 *287:65 *1421:69 0.000133403
88 *511:134 *2243:CK 0
89 *511:153 *1421:84 5.05239e-05
90 *762:25 *2236:CK 6.85774e-07
91 *762:39 *2236:CK 1.5717e-05
92 *772:10 *2243:CK 0
93 *1102:89 *1421:10 2.61927e-05
94 *1102:103 *1421:10 3.22796e-06
95 *1229:8 *2235:CK 8.62655e-06
96 *1229:21 *2235:CK 0
97 *1234:16 *2243:CK 1.24565e-05
98 *1234:58 *2242:CK 6.39696e-06
99 *1234:58 *2243:CK 1.0537e-05
100 *1258:27 *2235:CK 0
101 *1258:27 *1421:31 0
102 *1258:27 *1421:35 0
103 *1258:42 *1421:31 4.11375e-06
104 *1258:42 *1421:35 0
105 *1258:57 *1421:31 4.41601e-05
106 *1262:8 *1421:35 0.000235783
107 *1327:14 *2243:CK 1.28987e-05
*RES
1 *2905:Z *1421:6 10 
2 *1421:6 *1421:10 10.6786 
3 *1421:10 *1421:12 0.928572 
4 *1421:12 *1421:14 49.75 
5 *1421:14 *1421:16 0.928572 
6 *1421:16 *2227:CK 5 
7 *1421:16 *1421:31 32.9643 
8 *1421:31 *1421:35 21.5357 
9 *1421:35 *2234:CK 10 
10 *1421:35 *2235:CK 35.4286 
11 *1421:31 *2228:CK 5 
12 *1421:10 *2908:A 5 
13 *1421:6 *1421:69 37.0357 
14 *1421:69 *1421:71 6.75 
15 *1421:71 *2241:CK 18.25 
16 *1421:71 *1421:84 35.3572 
17 *1421:84 *2243:CK 29.1786 
18 *1421:84 *2242:CK 13.1786 
19 *1421:69 *2236:CK 17.3571 
*END
